@relation 'COVID-19 Survey Student Responses-weka.filters.unsupervised.attribute.Remove-R1-weka.filters.unsupervised.attribute.Reorder-R1,2,3,4,5,6,7,8,9,10,11,12,13,14,15,17,18,16-weka.filters.unsupervised.attribute.StringToNominal-R11-weka.filters.unsupervised.attribute.OrdinalToNumeric-R11'

@attribute 'Region of residence' {Delhi-NCR,'Outside Delhi-NCR'}
@attribute 'Age of Subject' numeric
@attribute 'Time spent on Online Class' numeric
@attribute 'Rating of Online Class experience' {Good,Excellent,'Very poor',Average,NA,Poor}
@attribute 'Medium for online class' {Laptop/Desktop,Smartphone,Tablet,NA,'Any Gadget','Smartphone or Laptop/Desktop'}
@attribute 'Time spent on self study' numeric
@attribute 'Time spent on fitness' numeric
@attribute 'Time spent on sleep' numeric
@attribute 'Time spent on social media' numeric
@attribute 'Prefered social media platform' {Linkedin,Youtube,Instagram,Whatsapp,None,Reddit,Snapchat,Omegle,Twitter,Telegram,Facebook,Elyment,'None ',Quora,Talklife,WhatsApp}
@attribute 'Time spent on TV' numeric
@attribute 'Number of meals per day' numeric
@attribute 'Change in your weight' {Increased,Decreased,'Remain Constant'}
@attribute 'Health issue during lockdown' {NO,YES}
@attribute 'Stress busters' {Cooking,'Scrolling through social media','Listening to music','Watching web series','Social Media','Coding and studying for exams','Online surfing','live stream watching',Reading,'Online gaming','Reading books',Dancing,'Talking with friends ','Talking to your relatives','sketching,reading books,meditation,songs','Watching orgasm releasing videos',Sleep,Crying,'Many of these','Web Series','drawing ',Meditation,Cricket,'Anime Manga',Sleeping,'Sketching and writing',Writing,pubg,Talking,'Workout ','Whatever want','Indoor Games','watching movies,reading books,games,listening to music,sleep,dancing','gardening cartoon','listening to music,reading books and dancing.','Dont get distreessed',' listening music, motion design, graphic design, sleeping.',Business,'Many among these ','Talk with childhood friends.','Playing ',Exercise,'Talking to friends','Netflix, Friends and Books',Driving,'I run',Running,Exercising,Football,singing,Cardio,'I cant de-stress myslef','working out and some physical activity','Writing my own Comics & novels',Gym,'I have no problem of stress ',workout,'No able to reduce the stress ','Sleeping, Online games','By engaging in my work.',Work,'Painting,. Sewing',Drawing,'Forming ','Workout and listening music','Both listining music and scrolling down social media',Painting,Sketching,Sports,'Drawing and painting and sketching','With a friend','Reading books, music, exercise','Watching ted talks and music and books','Calling friends','no stress','Drawing, painting','All reading books watching web series listening to music and talking to friends','Do some home related stuff','Painting ',Youtube,'Taking with parents','Online gaming , surfing and listening to music ','I play Rubiks cube','Listening to music and reading books both . ','Poetry, writing books and novels , listening to music too','Watching YouTube '}
@attribute 'Do you find yourself more connected with your family, close friends , relatives  ?' {YES,NO}
@attribute 'What you miss the most' {School/college,'Roaming around freely',Travelling,'Friends , relatives','Eating outside',Colleagues,Job,'Nothing this is my usual life',Gym,'All of them','Friends and School','Friends,Romaing and traveling','Only friends','Taking kids to park','All of the above ','All the above',Internet,'Going to the movies',Nothing,'school, relatives and friends','All ',All,'all of the above','Nothing ','Eating outside and friends.','All above','Nah, this is my usual lifestyle anyway, just being lazy....','Family ',Football,'Normal life','The idea of being around fun loving people but this time has certainly made us all to reconnect (and fill the gap if any) with our families and relatives so it is fun but certainly we do miss hanging out with friends','My normal routine',ALL,NOTHING,'Being social ','Previous mistakes',all,nothing,Playing,.,'I have missed nothing ','Travelling & Friends','To stay alone. ',Family,'Badminton in court','Friends, relatives & travelling',everything,'Friends and roaming around freely',Metro,'School and friends.','School and my school friends'}
@attribute 'Time utilized' {YES,NO}

@data
Delhi-NCR,21,2,Good,Laptop/Desktop,4,0,7,3,Linkedin,0,4,Increased,NO,Cooking,YES,School/college,YES
Delhi-NCR,21,0,Excellent,Smartphone,0,2,10,3,Youtube,1,3,Decreased,NO,'Scrolling through social media',NO,'Roaming around freely',YES
Delhi-NCR,20,7,'Very poor',Laptop/Desktop,3,0,6,2,Linkedin,1,3,'Remain Constant',NO,'Listening to music',YES,Travelling,NO
Delhi-NCR,20,3,'Very poor',Smartphone,2,1,6,5,Instagram,1,3,Decreased,NO,'Watching web series',NO,'Friends , relatives',NO
Delhi-NCR,21,3,Good,Laptop/Desktop,3,1,8,3,Instagram,0,4,'Remain Constant',NO,'Social Media',NO,Travelling,NO
Delhi-NCR,21,0,'Very poor',Smartphone,6,0,5,1,Youtube,1,1,Decreased,YES,'Coding and studying for exams',YES,School/college,NO
Delhi-NCR,19,2,'Very poor',Smartphone,2,1,5,4,Instagram,1,3,Increased,NO,'Watching web series',YES,'Friends , relatives',NO
'Outside Delhi-NCR',19,2,'Very poor',Tablet,1,1,10,5,Instagram,1,3,Increased,YES,'Scrolling through social media',YES,'Eating outside',NO
Delhi-NCR,21,3,'Very poor',Laptop/Desktop,4,1,8,2,Whatsapp,0,3,Increased,NO,'Online surfing',NO,'Friends , relatives',NO
'Outside Delhi-NCR',20,0,'Very poor',Laptop/Desktop,1,0.5,8,5,Instagram,2,3,Decreased,YES,'live stream watching',NO,School/college,NO
Delhi-NCR,21,3,Good,Laptop/Desktop,3,1,8,3,Instagram,0,4,'Remain Constant',NO,'Social Media',NO,Colleagues,NO
Delhi-NCR,21,1,'Very poor',Laptop/Desktop,0,1,7,3,Instagram,0,2,Increased,YES,'Watching web series',YES,'Eating outside',YES
Delhi-NCR,21,3,Average,Laptop/Desktop,0,0,8,3,Instagram,1,3,Increased,YES,'Listening to music',NO,School/college,NO
'Outside Delhi-NCR',22,1,Good,Laptop/Desktop,2,0,7,0,None,3,2,Increased,NO,Reading,YES,Travelling,YES
Delhi-NCR,20,5,'Very poor',Laptop/Desktop,1,0,8,3,Instagram,1,3,'Remain Constant',NO,'Scrolling through social media',NO,'Eating outside',NO
Delhi-NCR,22,3,Average,Smartphone,3,1,6,2,Instagram,0,3,Increased,NO,'Online gaming',YES,'Eating outside',YES
'Outside Delhi-NCR',20,0,Good,Smartphone,0,0,8,2,Reddit,0,3,Increased,NO,'Online gaming',YES,Colleagues,NO
Delhi-NCR,20,1,'Very poor',Smartphone,2,1,8,1,Youtube,1,3,'Remain Constant',NO,'Listening to music',NO,'Roaming around freely',NO
Delhi-NCR,21,0,'Very poor',Laptop/Desktop,4,0,7,7,Youtube,4,2,'Remain Constant',NO,'Reading books',NO,'Friends , relatives',NO
Delhi-NCR,22,5,'Very poor',Smartphone,2,1,8,4,Instagram,1,3,Increased,NO,Dancing,YES,'Friends , relatives',YES
Delhi-NCR,20,4,Excellent,Laptop/Desktop,5,0,6,2,Linkedin,0,2,Decreased,NO,'Listening to music',YES,'Roaming around freely',YES
Delhi-NCR,21,5,Average,Laptop/Desktop,2,1,10,5,Instagram,5,3,'Remain Constant',NO,'Talking with friends ',NO,School/college,YES
Delhi-NCR,21,4,'Very poor',Smartphone,1,0,8,6,Instagram,0,4,Decreased,NO,'Watching web series',YES,School/college,NO
Delhi-NCR,21,4,Average,Laptop/Desktop,2,1,7,1,Linkedin,1,3,Decreased,NO,Dancing,YES,Travelling,YES
Delhi-NCR,20,3,'Very poor',Smartphone,4,2,9,2,Instagram,0,3,Decreased,NO,'Reading books',NO,School/college,YES
Delhi-NCR,20,5,'Very poor',Smartphone,2,0,9,5,Linkedin,2,2,Increased,NO,'Talking to your relatives',YES,'Eating outside',YES
Delhi-NCR,21,4,'Very poor',Laptop/Desktop,5,0,8,3,Instagram,1,2,Increased,YES,'Listening to music',YES,School/college,NO
Delhi-NCR,20,3,'Very poor',Laptop/Desktop,6,0,9,2,Whatsapp,1,2,'Remain Constant',NO,'Listening to music',NO,'Roaming around freely',NO
Delhi-NCR,31,8,Average,Laptop/Desktop,4,1,6,2,Linkedin,3,3,'Remain Constant',NO,'Listening to music',YES,Job,YES
Delhi-NCR,22,4,'Very poor',Smartphone,6,1,5,3,Youtube,1,4,'Remain Constant',NO,'sketching,reading books,meditation,songs',NO,'Friends , relatives',NO
Delhi-NCR,19,4,'Very poor',Smartphone,5,1,7,2,Whatsapp,0,2,Decreased,YES,'Listening to music',YES,'Roaming around freely',YES
Delhi-NCR,23,4,Excellent,Laptop/Desktop,18,1,8,2,Snapchat,1,2,Decreased,NO,'Reading books',YES,Travelling,YES
Delhi-NCR,21,0,'Very poor',NA,5,2,4,2,Omegle,1,3,'Remain Constant',NO,'Watching orgasm releasing videos',NO,'Nothing this is my usual life',YES
Delhi-NCR,22,5,'Very poor',Laptop/Desktop,1,0,6,2,Linkedin,3,3,Decreased,YES,'Watching web series',YES,'Friends , relatives',YES
Delhi-NCR,20,0,NA,NA,6,1,6,5,Instagram,1,4,Increased,NO,'Talking to your relatives',NO,'Eating outside',YES
'Outside Delhi-NCR',21,6,Average,Smartphone,2,1,8,3,Instagram,0,3,'Remain Constant',NO,Cooking,YES,'Friends , relatives',NO
Delhi-NCR,17,4,'Very poor',Laptop/Desktop,1,1,7,1.5,Instagram,1,3,Decreased,NO,'Reading books',YES,Travelling,NO
'Outside Delhi-NCR',20,4,Average,Laptop/Desktop,2,0,8,2,Instagram,1,3,Increased,NO,Sleep,YES,'Eating outside',NO
'Outside Delhi-NCR',22,1,'Very poor',Smartphone,2,0.5,8,2,Linkedin,5,3,Increased,NO,'Listening to music',YES,School/college,NO
Delhi-NCR,20,0,NA,NA,8,0,8,0,Youtube,1,3,Increased,NO,'Reading books',YES,Travelling,NO
Delhi-NCR,24,4,Good,Laptop/Desktop,4,2,6,4,Youtube,1,4,Increased,NO,'Social Media',YES,Travelling,YES
'Outside Delhi-NCR',21,0,'Very poor',Laptop/Desktop,0,0,10,8,Youtube,0,4,'Remain Constant',NO,'Watching web series',NO,Travelling,YES
Delhi-NCR,20,7,'Very poor',Smartphone,2,1,8,2,Whatsapp,5,4,'Remain Constant',YES,'Listening to music',NO,'Roaming around freely',NO
Delhi-NCR,21,5,'Very poor',Laptop/Desktop,3,1,8,1,Instagram,1,2,Increased,NO,'Listening to music',NO,'Eating outside',NO
Delhi-NCR,18,2,Average,Smartphone,2,3,12,1,Linkedin,1,4,'Remain Constant',NO,Sleep,NO,'Friends , relatives',NO
Delhi-NCR,22,3,'Very poor',Laptop/Desktop,2,0,8,1,Instagram,1,4,Increased,NO,Cooking,YES,'Eating outside',NO
Delhi-NCR,20,2,'Very poor',Smartphone,6,2,7,1,Instagram,2,6,Decreased,NO,'Listening to music',NO,'Roaming around freely',YES
Delhi-NCR,20,2,'Very poor',Smartphone,3,0,6,2,Youtube,1,3,Decreased,YES,'Reading books',NO,School/college,NO
Delhi-NCR,21,3,'Very poor',Laptop/Desktop,4,2,8,2,Twitter,1,4,Increased,NO,'Listening to music',YES,Travelling,YES
Delhi-NCR,18,4,Good,Laptop/Desktop,2,0,8,4,Instagram,1,3,'Remain Constant',NO,'Social Media',YES,Colleagues,YES
Delhi-NCR,19,0,'Very poor',Smartphone,1,0,8,2,Youtube,5,3,'Remain Constant',YES,'Online gaming',YES,School/college,NO
Delhi-NCR,20,5,Average,Laptop/Desktop,6,1,7,2,Whatsapp,1,3,'Remain Constant',NO,'Reading books',YES,'Roaming around freely',NO
Delhi-NCR,21,3,Average,Laptop/Desktop,17,0,5,1,Youtube,1,3,Increased,NO,'Online gaming',NO,'Friends , relatives',NO
Delhi-NCR,19,0,Average,Smartphone,2,2,10,1,Instagram,3,4,'Remain Constant',NO,'Reading books',YES,'Roaming around freely',YES
Delhi-NCR,21,4,Average,Smartphone,4,1,8,2,Youtube,5,4,'Remain Constant',NO,Sleep,YES,Gym,YES
Delhi-NCR,19,4,'Very poor',Smartphone,2,0,7,1,Whatsapp,1,3,Increased,YES,'Watching web series',YES,'Roaming around freely',YES
Delhi-NCR,19,2,'Very poor',Smartphone,2,2,8,1,Youtube,1,4,Increased,NO,'Listening to music',YES,'Friends , relatives',NO
Delhi-NCR,18,1,'Very poor',Smartphone,8,0,8,5,Youtube,5,3,Increased,NO,'Online surfing',YES,School/college,YES
Delhi-NCR,20,5,Average,Laptop/Desktop,1,1,7,1,Whatsapp,1,3,Increased,YES,'Listening to music',YES,School/college,NO
Delhi-NCR,21,0,'Very poor',Smartphone,5,0,8,1,Instagram,0,3,'Remain Constant',NO,'Online gaming',NO,'Eating outside',YES
Delhi-NCR,22,6,'Very poor',Laptop/Desktop,6,0,6,1,Instagram,1,2,Increased,NO,'Watching web series',NO,'Friends , relatives',YES
Delhi-NCR,20,3,'Very poor',Laptop/Desktop,6,1,8,1,Instagram,5,4,Increased,NO,Sleep,YES,'Roaming around freely',YES
Delhi-NCR,18,0,'Very poor',Laptop/Desktop,2,1,6,5,Instagram,1,1,'Remain Constant',NO,Crying,YES,'Friends , relatives',NO
Delhi-NCR,20,2,'Very poor',Laptop/Desktop,0,1,8,2,Instagram,1,3,Increased,NO,'Watching web series',YES,School/college,NO
Delhi-NCR,23,2,'Very poor',Smartphone,1,1,7,5,Instagram,0,4,Decreased,NO,'Listening to music',YES,'Roaming around freely',YES
Delhi-NCR,20,4,Average,Smartphone,4,2,7,2,Instagram,0,3,Increased,NO,'Listening to music',YES,'Eating outside',NO
'Outside Delhi-NCR',19,0,NA,NA,0,2,6,4,Instagram,3,3,'Remain Constant',NO,'Listening to music',YES,'Eating outside',NO
Delhi-NCR,18,3,Average,Smartphone,1,1,8,3,Whatsapp,3,4,'Remain Constant',NO,Dancing,YES,'Roaming around freely',YES
Delhi-NCR,20,1.5,'Very poor',Smartphone,3,2,9,1,Youtube,0,2,Decreased,YES,Sleep,YES,Travelling,NO
Delhi-NCR,19,2,'Very poor',Tablet,2,1,8,5,Instagram,1,4,Decreased,NO,'Scrolling through social media',YES,'Roaming around freely',NO
'Outside Delhi-NCR',20,2,'Very poor',Smartphone,3,1,6,2,Instagram,0,4,Increased,NO,'Listening to music',NO,Travelling,NO
Delhi-NCR,22,6,'Very poor',Smartphone,4,0,7,2,Whatsapp,1,1,Increased,NO,'Online gaming',NO,'Eating outside',NO
Delhi-NCR,20,2,'Very poor',Smartphone,2,0,7,3,Whatsapp,5,2,'Remain Constant',NO,'Reading books',NO,'Friends , relatives',NO
Delhi-NCR,19,1,Average,Laptop/Desktop,0.5,1,7,5,Instagram,5,3,'Remain Constant',NO,'Many of these',YES,'Friends , relatives',NO
Delhi-NCR,18,3,'Very poor',Smartphone,2,2,8,8,Instagram,1,4,'Remain Constant',NO,'Listening to music',YES,School/college,NO
'Outside Delhi-NCR',19,3,Average,Smartphone,5,0,5,4,Telegram,1,2,Increased,YES,'Listening to music',NO,'Roaming around freely',YES
Delhi-NCR,19,0,'Very poor',Smartphone,1,1,8,2,Instagram,1,3,Decreased,NO,'Listening to music',YES,School/college,YES
Delhi-NCR,20,3,Average,Laptop/Desktop,3,0,10,10,Facebook,6,3,Increased,NO,'Scrolling through social media',NO,School/college,NO
Delhi-NCR,20,3,Excellent,Laptop/Desktop,0,1,8,5,Youtube,0,3,Increased,NO,'Online surfing',YES,School/college,NO
Delhi-NCR,19,1,Good,Laptop/Desktop,4,0,8,2,None,1,4,Increased,NO,'Web Series',YES,Travelling,YES
Delhi-NCR,21,5,Average,Laptop/Desktop,5,0,8,7,Instagram,0,2,Increased,YES,'Scrolling through social media',YES,'Friends , relatives',NO
Delhi-NCR,21,3,Good,Smartphone,2,1,10,1,Youtube,1,3,'Remain Constant',NO,'Online gaming',NO,Colleagues,NO
Delhi-NCR,19,2,'Very poor',Smartphone,2,0.5,9,3,Instagram,0,2,Increased,NO,'Online gaming',YES,School/college,YES
Delhi-NCR,20,0,'Very poor',Laptop/Desktop,1,1,12,2,Instagram,5,2,Increased,NO,'Online gaming',YES,'Roaming around freely',NO
'Outside Delhi-NCR',21,1,Poor,Smartphone,8,0,10,1,Whatsapp,1,3,Decreased,NO,Sleep,YES,School/college,YES
Delhi-NCR,19,2,'Very poor',Tablet,2,1,8,5,Instagram,1,4,Decreased,NO,'Scrolling through social media',YES,'Roaming around freely',NO
Delhi-NCR,20,5,Average,Smartphone,3,1,7,1.5,Instagram,1,3,Increased,YES,'drawing ',YES,School/college,YES
'Outside Delhi-NCR',21,4,'Very poor',Smartphone,3,1,8,1,Linkedin,1,3,Decreased,NO,Meditation,NO,'All of them',NO
Delhi-NCR,18,3,'Very poor',Smartphone,4,1,7,1,Whatsapp,1,4,'Remain Constant',YES,'Listening to music',NO,'Eating outside',NO
'Outside Delhi-NCR',19,4,Average,Smartphone,3,1,7,3,Instagram,5,3,Increased,NO,'Listening to music',YES,School/college,YES
'Outside Delhi-NCR',25,4,'Very poor',Smartphone,3,1,7,1,Instagram,1,3,'Remain Constant',YES,Cricket,NO,'Eating outside',NO
Delhi-NCR,19,0,'Very poor',Smartphone,4,1,8,1,Whatsapp,1,3,Increased,NO,'Listening to music',YES,School/college,NO
Delhi-NCR,19,4,'Very poor',Laptop/Desktop,0,0,8,2,Instagram,7,3,Increased,YES,'Anime Manga',NO,School/college,NO
Delhi-NCR,20,4,Good,Smartphone,2,2,8,6,Instagram,1,3,Decreased,NO,Sleeping,YES,School/college,YES
Delhi-NCR,20,2,Average,Smartphone,3,1,5,4,Instagram,0,3,Increased,NO,'Listening to music',YES,School/college,NO
Delhi-NCR,19,5,Good,Tablet,3,1,8,2,Snapchat,1,2,'Remain Constant',NO,Reading,YES,Travelling,NO
Delhi-NCR,19,3,Average,Smartphone,1,0,10,4,Whatsapp,1,3,'Remain Constant',NO,'Listening to music',YES,School/college,NO
Delhi-NCR,22,2,Average,Smartphone,0,0,12,4,Instagram,5,3,Increased,NO,'Online gaming',YES,'Eating outside',NO
'Outside Delhi-NCR',21,1,Good,Smartphone,3,2,10,1,Youtube,5,4,Increased,YES,Meditation,YES,Colleagues,NO
Delhi-NCR,21,1,'Very poor',Smartphone,2,1,8,1,Whatsapp,1,3,Increased,NO,'Listening to music',NO,School/college,NO
'Outside Delhi-NCR',16,6,Poor,Smartphone,2,2,7,2,Youtube,0,3,'Remain Constant',NO,'Scrolling through social media',YES,Travelling,YES
'Outside Delhi-NCR',21,3,Average,Laptop/Desktop,5,0,8,7,Linkedin,0,2,'Remain Constant',NO,'Watching web series',YES,School/college,NO
'Outside Delhi-NCR',21,4,'Very poor',Smartphone,4,1,7,1,Whatsapp,1,4,Decreased,YES,'Listening to music',NO,Travelling,YES
'Outside Delhi-NCR',16,3,'Very poor',Smartphone,3,1,7,3,Youtube,0,2,'Remain Constant',NO,'Listening to music',NO,'Friends and School',NO
Delhi-NCR,21,2,'Very poor',Smartphone,7,2,8,0.5,Instagram,1,5,Increased,NO,'Reading books',YES,Gym,YES
'Outside Delhi-NCR',23,4,Excellent,Laptop/Desktop,6,1,8,0.3,Whatsapp,1,3,Increased,NO,'Talking to your relatives',NO,Travelling,YES
Delhi-NCR,19,2,'Very poor',Smartphone,1.5,1,7,2,Youtube,8,2,'Remain Constant',NO,'Listening to music',NO,School/college,NO
Delhi-NCR,20,1,'Very poor',Smartphone,2,1,8,1,Instagram,1,3,Increased,NO,'Listening to music',NO,School/college,NO
Delhi-NCR,18,2,'Very poor',Smartphone,3,1,8,1,Instagram,0,3,Decreased,NO,'Listening to music',YES,'Roaming around freely',YES
'Outside Delhi-NCR',10,3,Good,Tablet,3,0,10,1,Youtube,9,3,'Remain Constant',NO,'Online gaming',NO,Colleagues,YES
'Outside Delhi-NCR',20,0,'Very poor',Smartphone,2,2,8,0.15,Linkedin,10,2,Decreased,NO,'Talking to your relatives',YES,School/college,YES
Delhi-NCR,21,3,Average,Smartphone,3,0,11,2,Whatsapp,8,2,Increased,YES,Sleep,YES,School/college,NO
Delhi-NCR,19,1,'Very poor',Smartphone,4,1,8,1,Youtube,1,4,'Remain Constant',NO,Sleep,YES,School/college,NO
'Outside Delhi-NCR',14,5,Average,Laptop/Desktop,4,1,7,4,Instagram,0,5,Increased,NO,'Scrolling through social media',NO,'Friends,Romaing and traveling',NO
Delhi-NCR,18,2,'Very poor',Smartphone,3,1,10,2,Whatsapp,1,3,'Remain Constant',NO,'Online gaming',YES,School/college,NO
Delhi-NCR,18,3,'Very poor',Smartphone,6,0,7,3,Youtube,0,3,'Remain Constant',NO,'Reading books',NO,School/college,YES
'Outside Delhi-NCR',24,4,Excellent,Laptop/Desktop,8,1,8,2,Youtube,5,3,Increased,NO,'Online surfing',YES,'Friends , relatives',YES
'Outside Delhi-NCR',14,3,Good,Smartphone,5,1,12,0.3,Instagram,0,3,'Remain Constant',NO,Sleeping,YES,Colleagues,YES
'Outside Delhi-NCR',21,4,Good,Laptop/Desktop,2,2,7,2,Instagram,0,3,Increased,NO,Dancing,YES,Travelling,YES
Delhi-NCR,19,2,Average,Smartphone,6,1,6,1,Instagram,1,3,Increased,NO,'Watching web series',YES,School/college,NO
Delhi-NCR,18,2.5,Average,Smartphone,2,1,8,1,Youtube,1,4,'Remain Constant',NO,'Listening to music',YES,Travelling,NO
'Outside Delhi-NCR',23,6,Average,Laptop/Desktop,5,1,6,1,Linkedin,1,3,'Remain Constant',NO,Meditation,YES,School/college,YES
'Outside Delhi-NCR',21,4,Average,Smartphone,4,1,8,1,Youtube,1,3,'Remain Constant',NO,Meditation,YES,'Friends , relatives',YES
Delhi-NCR,18,5,'Very poor',Smartphone,3,0,9,7,Whatsapp,1,3,Increased,NO,'Watching web series',NO,'Roaming around freely',YES
Delhi-NCR,19,1,'Very poor',Smartphone,2,0,7,1,Whatsapp,1,2,Increased,YES,Sleep,NO,School/college,NO
'Outside Delhi-NCR',20,5,Average,Smartphone,4,1,7,2,Whatsapp,0,3,Increased,NO,Meditation,YES,School/college,YES
Delhi-NCR,20,2,Average,Smartphone,3,0.5,6.5,1,Whatsapp,3,3,'Remain Constant',NO,'Listening to music',YES,'Roaming around freely',YES
Delhi-NCR,19,2,'Very poor',Smartphone,4,1,8,2,Youtube,1,4,Decreased,NO,'Sketching and writing',NO,'Roaming around freely',NO
'Outside Delhi-NCR',15,1,Good,Smartphone,3,1,6,4,Whatsapp,7,4,Increased,NO,'Listening to music',YES,School/college,YES
Delhi-NCR,19,0,NA,NA,1,3,8,5,Instagram,0,1,Decreased,NO,'Listening to music',YES,'Eating outside',NO
'Outside Delhi-NCR',20,3,'Very poor',Smartphone,3,0,9,2,Youtube,5,2,Decreased,NO,Meditation,YES,Travelling,YES
Delhi-NCR,17,6,Average,Laptop/Desktop,4,1,8,1,Youtube,0,2,'Remain Constant',NO,'Listening to music',YES,School/college,NO
Delhi-NCR,18,2,'Very poor',Smartphone,2,1,9,2,Linkedin,5,2,Increased,NO,'Watching web series',YES,Travelling,YES
Delhi-NCR,20,2,'Very poor',Smartphone,4,0,10,4,Whatsapp,5,3,Decreased,NO,Cooking,YES,School/college,NO
Delhi-NCR,18,5,Average,Smartphone,1,1,8,1,Youtube,1,4,Increased,NO,Sleep,YES,'Roaming around freely',YES
Delhi-NCR,22,0.1,Poor,Smartphone,2.5,1,12,0.3,Youtube,1,5,Increased,NO,'Online gaming',YES,'Only friends',NO
Delhi-NCR,18,3,'Very poor',Smartphone,5,1,7,2,Youtube,1,3,'Remain Constant',NO,'Online gaming',YES,'Roaming around freely',NO
Delhi-NCR,15,4,Average,Smartphone,2,0.5,6,1,Whatsapp,0,3,'Remain Constant',NO,Dancing,YES,'Eating outside',NO
'Outside Delhi-NCR',22,1,'Very poor',Laptop/Desktop,10,1,7,1,Whatsapp,1,3,'Remain Constant',NO,Writing,YES,'Roaming around freely',YES
Delhi-NCR,19,3,'Very poor',Laptop/Desktop,2,1,9,1,Youtube,1,3,Decreased,NO,'Online gaming',YES,School/college,NO
Delhi-NCR,20,3,'Very poor',Smartphone,5,0,7,2,Instagram,0,2,'Remain Constant',YES,'Watching web series',YES,School/college,YES
'Outside Delhi-NCR',20,3,'Very poor',Smartphone,3,0,9,2,Youtube,5,2,Decreased,NO,Meditation,YES,Travelling,YES
Delhi-NCR,20,1,'Very poor',Smartphone,1,0,6,0,None,1,2,Increased,NO,Sleep,YES,School/college,YES
Delhi-NCR,18,2,Poor,Smartphone,6,1,7,1,Youtube,0,2,Increased,NO,'Listening to music',YES,'Friends , relatives',YES
Delhi-NCR,19,2,'Very poor',Smartphone,2,2,8,2,Youtube,2,2,Increased,NO,'Watching web series',YES,'Eating outside',YES
'Outside Delhi-NCR',14,4,Average,Smartphone,2,1,8,2,Whatsapp,0,3,'Remain Constant',NO,'Listening to music',NO,'Friends , relatives',YES
Delhi-NCR,20,6,Average,Laptop/Desktop,1,1,6,1,Linkedin,1,3,Increased,YES,'Talking to your relatives',YES,School/college,YES
Delhi-NCR,20,3,Average,Laptop/Desktop,2,1,8,2,Linkedin,5,3,'Remain Constant',NO,'Listening to music',NO,'Roaming around freely',NO
Delhi-NCR,19,6,'Very poor',Smartphone,3,0,7,2,Whatsapp,3,2,Increased,YES,'Online gaming',YES,'Friends , relatives',NO
Delhi-NCR,19,1,Average,Laptop/Desktop,1,1,10,1,Instagram,1,3,'Remain Constant',NO,'Listening to music',YES,'Eating outside',YES
Delhi-NCR,18,2,'Very poor',Smartphone,2,1,10,2,Whatsapp,1,3,'Remain Constant',NO,'Listening to music',NO,'Eating outside',NO
'Outside Delhi-NCR',21,4,'Very poor',Smartphone,4,1,8,2,Instagram,1,3,Increased,NO,Sleep,YES,'Roaming around freely',NO
'Outside Delhi-NCR',15,4,Average,Smartphone,7,2,6,1,Instagram,0,4,'Remain Constant',NO,'Listening to music',YES,'Friends , relatives',YES
Delhi-NCR,20,5,'Very poor',Tablet,3,1,8,2,Whatsapp,2,4,Increased,NO,'Listening to music',NO,'Roaming around freely',NO
'Outside Delhi-NCR',21,1,'Very poor',Smartphone,3,0,6,1,Instagram,0,1,Decreased,YES,'Reading books',YES,'Eating outside',NO
Delhi-NCR,19,0.5,'Very poor',Smartphone,7,2,7,0.1,Instagram,1,4,'Remain Constant',YES,'Listening to music',YES,'Friends , relatives',YES
Delhi-NCR,20,3,'Very poor',Laptop/Desktop,1,0,6,2,Facebook,1,2,Increased,NO,pubg,YES,'Eating outside',NO
Delhi-NCR,21,5,Average,Smartphone,1,0,5,1,Whatsapp,1,2,Decreased,NO,'Online gaming',NO,Travelling,NO
Delhi-NCR,21,4,Excellent,Laptop/Desktop,6,2,6,1,Youtube,0,3,'Remain Constant',NO,Cooking,YES,'Eating outside',YES
Delhi-NCR,21,3,'Very poor',Smartphone,2,0,7,2,Twitter,1,3,Increased,YES,'Reading books',YES,School/college,NO
Delhi-NCR,20,4,Average,Laptop/Desktop,2,0,7,2,Snapchat,9,3,Increased,NO,'Online gaming',NO,'Friends , relatives',NO
'Outside Delhi-NCR',20,6,'Very poor',Smartphone,3,0,8,4,Linkedin,5,3,Increased,YES,Sleep,YES,School/college,NO
'Outside Delhi-NCR',23,0,'Very poor',Laptop/Desktop,1,0,10,4,Linkedin,1,4,Increased,NO,'Online gaming',YES,Travelling,NO
'Outside Delhi-NCR',21,4,'Very poor',Smartphone,3,1,8,1,Youtube,0,3,'Remain Constant',YES,'Online surfing',YES,'Friends , relatives',NO
Delhi-NCR,22,1,'Very poor',Smartphone,4,1,7,2,Linkedin,1,2,Increased,YES,'Watching web series',NO,'Roaming around freely',NO
Delhi-NCR,23,3,Good,Tablet,0,0,12,4,Instagram,1,2,Increased,NO,Cooking,NO,Travelling,NO
Delhi-NCR,22,4,Good,Smartphone,4,0.5,8,2,Whatsapp,1,3,Increased,NO,Sleeping,NO,School/college,YES
'Outside Delhi-NCR',21,0,'Very poor',Smartphone,1,0,7,10,Whatsapp,1,7,Increased,NO,'Listening to music',YES,School/college,NO
'Outside Delhi-NCR',20,0,'Very poor',Smartphone,3,2,12,1,Instagram,1,3,Increased,NO,'Scrolling through social media',NO,School/college,NO
'Outside Delhi-NCR',15,4,Average,Smartphone,2,3,7,1,Instagram,5,4,Increased,NO,'Online gaming',YES,'Friends , relatives',NO
'Outside Delhi-NCR',20,0,'Very poor',Smartphone,3,2,8,2,Whatsapp,0,3,'Remain Constant',YES,'Listening to music',YES,School/college,YES
'Outside Delhi-NCR',20,0,'Very poor',Smartphone,1,0,8,0.5,Whatsapp,0,3,Decreased,YES,'Reading books',YES,'Roaming around freely',NO
'Outside Delhi-NCR',16,4,Excellent,Laptop/Desktop,3,2,10,1,Youtube,0,3,Increased,NO,'Online gaming',YES,'Friends , relatives',YES
'Outside Delhi-NCR',22,1,Average,Smartphone,3,1,7,1,Whatsapp,1,3,'Remain Constant',NO,Sleep,YES,School/college,NO
Delhi-NCR,20,5,Average,Laptop/Desktop,4,0,10,2,Linkedin,9,3,Decreased,NO,Sleep,YES,'Roaming around freely',YES
'Outside Delhi-NCR',21,0,Good,Smartphone,4,1,8,2,Instagram,1,2,Decreased,YES,'Online gaming',YES,Colleagues,YES
'Outside Delhi-NCR',34,3,Good,Laptop/Desktop,3,1,7,1,Whatsapp,5,3,'Remain Constant',NO,Sleeping,YES,Travelling,YES
'Outside Delhi-NCR',22,0,Average,Laptop/Desktop,3,1,9,0,Telegram,5,5,Decreased,NO,'Watching web series',YES,'Roaming around freely',NO
Delhi-NCR,22,6,Good,Laptop/Desktop,2,1,8,4,Instagram,1,4,'Remain Constant',NO,'Online gaming',YES,Colleagues,NO
'Outside Delhi-NCR',21,1,Average,Laptop/Desktop,1,2,7,2,Youtube,0,4,Increased,NO,'Listening to music',YES,'Friends , relatives',NO
'Outside Delhi-NCR',20,1,'Very poor',Smartphone,2,1,8,3,Whatsapp,1,3,'Remain Constant',NO,'Watching web series',NO,'Friends , relatives',YES
'Outside Delhi-NCR',21,3,Average,Smartphone,0.5,3,6,2,Instagram,1,3,'Remain Constant',NO,'Online gaming',YES,School/college,YES
'Outside Delhi-NCR',19,2,'Very poor',Smartphone,2,1,8,2,Instagram,5,3,Increased,YES,'Listening to music',YES,'Roaming around freely',YES
'Outside Delhi-NCR',22,1,'Very poor',Smartphone,7,0,7,1,Facebook,1,3,'Remain Constant',NO,'Talking to your relatives',YES,'Friends , relatives',YES
'Outside Delhi-NCR',20,3,'Very poor',Laptop/Desktop,1.5,1,6,2,Reddit,7,2,Decreased,YES,'Watching web series',NO,'Friends , relatives',NO
'Outside Delhi-NCR',14,4,'Very poor',Smartphone,1,0,9,1.5,Whatsapp,11,3,'Remain Constant',NO,'Reading books',YES,'Friends , relatives',NO
Delhi-NCR,22,1,Average,Smartphone,4,0.5,11,1,Instagram,1,3,'Remain Constant',YES,'Listening to music',NO,School/college,NO
'Outside Delhi-NCR',22,2,Average,Laptop/Desktop,5,0,8,3,Instagram,0,3,Increased,NO,'Listening to music',YES,School/college,YES
Delhi-NCR,19,2,Poor,Smartphone,10,0.25,8,2,Instagram,1,3,Increased,NO,'Talking to your relatives',YES,School/college,YES
'Outside Delhi-NCR',21,1,Average,Smartphone,0,1,6,2,Whatsapp,1,2,Decreased,NO,'Online gaming',YES,School/college,NO
'Outside Delhi-NCR',15,5,Average,Smartphone,5,0,7,3,Instagram,5,3,'Remain Constant',NO,'Watching web series',YES,School/college,NO
'Outside Delhi-NCR',21,3,Good,Laptop/Desktop,3,0.5,8,4,Youtube,1,3,'Remain Constant',NO,'Web Series',YES,Colleagues,NO
Delhi-NCR,21,3,'Very poor',Smartphone,8,3,7,3,Youtube,1,3,Decreased,YES,'Talking to your relatives',NO,School/college,NO
'Outside Delhi-NCR',34,3,Average,Laptop/Desktop,3,1,8,1,Whatsapp,0,3,'Remain Constant',NO,'Talking to your relatives',YES,Travelling,YES
'Outside Delhi-NCR',22,3,'Very poor',Laptop/Desktop,0,5,8,10,Twitter,12,3,'Remain Constant',NO,'Talking to your relatives',YES,'Friends , relatives',NO
'Outside Delhi-NCR',34,1.5,Poor,Laptop/Desktop,1,0,6,1,Linkedin,1,2,'Remain Constant',YES,'Online surfing',NO,'Taking kids to park',NO
Delhi-NCR,21,4,Good,Laptop/Desktop,4,1,7,2,Instagram,5,3,'Remain Constant',NO,Talking,YES,Colleagues,YES
'Outside Delhi-NCR',20,3,Average,Laptop/Desktop,3,1,7,1,Instagram,1,3,'Remain Constant',NO,'Listening to music',YES,School/college,YES
'Outside Delhi-NCR',20,3,'Very poor',Laptop/Desktop,5,0,7.5,2,Whatsapp,3,4,Increased,NO,Sleep,NO,School/college,YES
'Outside Delhi-NCR',25,2,'Very poor',Laptop/Desktop,3,1,8,4,Facebook,0,2,Increased,NO,'Watching web series',NO,'Roaming around freely',NO
'Outside Delhi-NCR',19,0.5,'Very poor',Smartphone,3,1,8,1,Instagram,1,2,'Remain Constant',NO,Sleep,YES,School/college,YES
Delhi-NCR,26,5,Average,Laptop/Desktop,10,1,8,1,Youtube,3,2,'Remain Constant',NO,Meditation,YES,'Roaming around freely',YES
'Outside Delhi-NCR',20,3,Good,Laptop/Desktop,4,0,8,2,Youtube,1,3,'Remain Constant',NO,Cooking,YES,Travelling,YES
Delhi-NCR,24,7,'Very poor',Laptop/Desktop,7,2,7,2,Youtube,1,3,'Remain Constant',NO,'Reading books',YES,Travelling,YES
Delhi-NCR,21,0,'Very poor',Laptop/Desktop,0,2,12,6,Facebook,1,4,Increased,NO,'Watching web series',NO,Travelling,NO
Delhi-NCR,20,5,Good,Smartphone,2.5,1,9,3,Instagram,3,2,'Remain Constant',NO,Dancing,YES,School/college,YES
Delhi-NCR,16,7,Average,Tablet,4,1,7,1,Whatsapp,1,3,'Remain Constant',NO,'Reading books',YES,'All of the above ',YES
Delhi-NCR,17,6,Average,Laptop/Desktop,1,0,7,2,Reddit,1,2,'Remain Constant',NO,'Online gaming',NO,'Friends , relatives',YES
Delhi-NCR,59,3,Average,Smartphone,6,1,9,0.5,Whatsapp,0,2,Increased,NO,Sleep,YES,School/college,YES
Delhi-NCR,17,7,Good,Smartphone,4,0,7,1,Whatsapp,0,2,Increased,NO,'Listening to music',NO,School/college,YES
Delhi-NCR,16,6,'Very poor',Smartphone,5,0,7,2,Youtube,1,3,Increased,NO,'Online surfing',YES,'Friends , relatives',NO
'Outside Delhi-NCR',20,3,Average,Laptop/Desktop,4,1,7,2,Linkedin,5,3,'Remain Constant',NO,'Talking to your relatives',NO,School/college,YES
Delhi-NCR,17,6,'Very poor',Smartphone,1.5,2,7,2,Instagram,3,4,Increased,NO,'Workout ',NO,Travelling,YES
Delhi-NCR,17,6,Average,Laptop/Desktop,5,0.5,7,1,Whatsapp,0,2,'Remain Constant',NO,'Listening to music',NO,'Eating outside',NO
Delhi-NCR,20,3,Good,Laptop/Desktop,4,0,7,4,Whatsapp,1,2,'Remain Constant',YES,'Social Media',YES,Colleagues,YES
'Outside Delhi-NCR',17,6,Average,Tablet,2,1,7,1,Whatsapp,0,4,'Remain Constant',NO,'Reading books',YES,'Friends , relatives',NO
Delhi-NCR,20,4,'Very poor',Smartphone,2,0,7,0.5,Whatsapp,3,3,Increased,NO,Sleep,NO,School/college,NO
'Outside Delhi-NCR',16,8,Good,Laptop/Desktop,7,0,6,1,Whatsapp,3,3,'Remain Constant',NO,'Social Media',NO,Travelling,NO
Delhi-NCR,19,0.5,'Very poor',Smartphone,5,0.5,10,1,Whatsapp,0,2,'Remain Constant',YES,Meditation,NO,School/college,YES
Delhi-NCR,20,0,'Very poor',Laptop/Desktop,2,0,10,3,Instagram,5,4,Increased,NO,Sleep,YES,'Friends , relatives',NO
'Outside Delhi-NCR',22,4,Average,Laptop/Desktop,3,1,8,3,Whatsapp,1,4,Increased,NO,'Online gaming',NO,Travelling,YES
'Outside Delhi-NCR',17,9,Poor,Laptop/Desktop,3,0,5,0.5,Instagram,0,3,'Remain Constant',NO,'Listening to music',NO,'All the above',NO
Delhi-NCR,23,1,'Very poor',Smartphone,8,2,8,2,Instagram,5,3,Decreased,NO,'Online gaming',YES,'Friends , relatives',YES
'Outside Delhi-NCR',22,0,'Very poor',Laptop/Desktop,3,0,10,8,Instagram,1,2,Increased,YES,'Watching web series',YES,'Friends , relatives',YES
Delhi-NCR,22,1.5,Average,Laptop/Desktop,0,0,9,6,Instagram,5,3,Increased,NO,'Scrolling through social media',YES,School/college,YES
'Outside Delhi-NCR',19,2,'Very poor',Smartphone,2,1,8,2,Whatsapp,0,3,Decreased,YES,'Scrolling through social media',YES,'Roaming around freely',NO
Delhi-NCR,19,2,'Very poor',Smartphone,5,1,9,2,Twitter,1,4,'Remain Constant',NO,'Listening to music',NO,School/college,YES
'Outside Delhi-NCR',23,1,'Very poor',Laptop/Desktop,1,0,8,5,Whatsapp,1,4,Increased,NO,'Talking to your relatives',YES,'Eating outside',NO
'Outside Delhi-NCR',32,4,Good,Laptop/Desktop,5,2,5,3,Facebook,1,3,'Remain Constant',NO,Reading,YES,Colleagues,YES
Delhi-NCR,17,6,Average,Smartphone,12,1,8,2,Whatsapp,2,4,'Remain Constant',NO,Sleep,NO,Travelling,NO
Delhi-NCR,21,0,NA,NA,10,1,5,0.5,Linkedin,1,4,'Remain Constant',NO,Cooking,NO,Internet,NO
Delhi-NCR,22,4,Average,Laptop/Desktop,3,2,8,2,Whatsapp,3,4,Increased,NO,Sleep,YES,'Roaming around freely',YES
'Outside Delhi-NCR',17,6,'Very poor','Any Gadget',4,2.5,8,0.5,Instagram,1,3,'Remain Constant',NO,'Reading books',YES,School/college,YES
'Outside Delhi-NCR',17,5,Average,Laptop/Desktop,1.5,2,8,1,Youtube,2,3,Decreased,NO,Cooking,YES,'Friends , relatives',YES
Delhi-NCR,22,5,Good,Laptop/Desktop,10,1,6,1,Elyment,1,3,'Remain Constant',YES,'Online gaming',YES,School/college,YES
'Outside Delhi-NCR',18,2,'Very poor',Smartphone,2,2,9,4,Youtube,1,3,Increased,NO,'Online gaming',YES,School/college,NO
Delhi-NCR,20,5,'Very poor',Laptop/Desktop,12,0,7,1,Reddit,1,3,Increased,NO,'Reading books',YES,'Roaming around freely',NO
'Outside Delhi-NCR',30,3,Average,Smartphone,1,0.5,4,1,Whatsapp,3,2,'Remain Constant',NO,Meditation,YES,School/college,YES
Delhi-NCR,19,1,Average,Laptop/Desktop,1,0,8,1,Youtube,5,4,'Remain Constant',NO,'Whatever want',NO,'Eating outside',NO
'Outside Delhi-NCR',14,3,Good,Laptop/Desktop,2,0,8,1,Whatsapp,0,1,Increased,NO,Cooking,YES,School/college,YES
'Outside Delhi-NCR',19,0,NA,NA,2,1,8,4,Instagram,1,3,'Remain Constant',NO,'Online gaming',YES,'Friends , relatives',YES
'Outside Delhi-NCR',16,7,Average,Smartphone,3,2,11,1.5,Instagram,0,3,Decreased,YES,'Online gaming',YES,School/college,NO
Delhi-NCR,17,6,Average,Smartphone,2,1,9,3,Instagram,3,3,'Remain Constant',NO,Sleep,YES,'Friends , relatives',NO
Delhi-NCR,20,1,'Very poor',Tablet,2,2,8,1,Youtube,1,2,Decreased,NO,'Reading books',YES,School/college,NO
Delhi-NCR,17,4,Good,Smartphone,2,0,7,3,Instagram,5,4,Increased,NO,'Social Media',YES,School/college,YES
Delhi-NCR,20,6,Average,'Any Gadget',2,0,6,4,Instagram,1,3,Increased,NO,'Listening to music',NO,'Roaming around freely',NO
'Outside Delhi-NCR',17,5,Average,Smartphone,4,2,7,2,Youtube,5,2,Increased,NO,'Online gaming',YES,School/college,NO
Delhi-NCR,21,3,'Very poor',Laptop/Desktop,2,0,7,2,Facebook,5,3,'Remain Constant',NO,'Online gaming',NO,'Going to the movies',YES
Delhi-NCR,16,4,Poor,Laptop/Desktop,0,0,9,1,Whatsapp,0,2,'Remain Constant',NO,'Listening to music',YES,School/college,NO
Delhi-NCR,21,5,Average,Smartphone,2,2,6,5,Instagram,1,3,Increased,NO,'Scrolling through social media',YES,'Roaming around freely',NO
Delhi-NCR,18,0,NA,NA,8,0.5,5,3,Linkedin,0,3,'Remain Constant',NO,Dancing,YES,Travelling,YES
'Outside Delhi-NCR',20,4,Good,Laptop/Desktop,5,1,7,0.1,Whatsapp,1,4,'Remain Constant',NO,Reading,NO,School/college,NO
'Outside Delhi-NCR',14,4,Average,Smartphone,4,0,8,2,Instagram,5,3,Increased,NO,'Listening to music',YES,School/college,NO
Delhi-NCR,19,3,Good,Laptop/Desktop,2,0,8,5,Youtube,7,3,Increased,NO,'Web Series',YES,School/college,NO
Delhi-NCR,18,0,'Very poor',Laptop/Desktop,3,0,8,4,Facebook,0,3,Increased,NO,'Watching web series',YES,'Friends , relatives',NO
'Outside Delhi-NCR',13,5,'Very poor',Laptop/Desktop,4,1,8,10,Whatsapp,1,3,Decreased,NO,Cooking,NO,School/college,NO
'Outside Delhi-NCR',20,4,'Very poor',Laptop/Desktop,8,0,6,1,Instagram,1,3,Decreased,NO,'Listening to music',YES,'Eating outside',YES
'Outside Delhi-NCR',19,0,'Very poor',Laptop/Desktop,4,0.3,8,2,Whatsapp,1,2,'Remain Constant',NO,'Talking to your relatives',NO,School/college,NO
'Outside Delhi-NCR',15,5,Average,Smartphone,1,0,7,1,Youtube,7,3,'Remain Constant',NO,'Online gaming',YES,School/college,NO
'Outside Delhi-NCR',20,1,'Very poor',Smartphone,0,0,10,5,Youtube,0,2,Increased,YES,Sleep,YES,School/college,NO
Delhi-NCR,19,0,'Very poor',Laptop/Desktop,1,0,8,4,Twitter,5,3,Increased,NO,'Watching web series',NO,'Friends , relatives',NO
'Outside Delhi-NCR',21,3,Good,Laptop/Desktop,3,1,6,0.5,Whatsapp,3,2,Increased,YES,'Listening to music',NO,Travelling,YES
'Outside Delhi-NCR',20,4,'Very poor',Laptop/Desktop,2,1,8,4,Youtube,1,4,Increased,NO,'Listening to music',YES,'Friends , relatives',NO
Delhi-NCR,20,4,Good,Laptop/Desktop,5,1,6,2,Youtube,3,2,'Remain Constant',NO,'Listening to music',YES,Colleagues,NO
'Outside Delhi-NCR',16,6,Good,Laptop/Desktop,3,0,7,1,Whatsapp,0,3,'Remain Constant',NO,'Listening to music',NO,School/college,NO
Delhi-NCR,21,2,Poor,Laptop/Desktop,2,1,5,3,Whatsapp,0,3,'Remain Constant',NO,'Reading books',YES,'Roaming around freely',YES
Delhi-NCR,17,5.5,Good,Smartphone,5,1,9,1,Youtube,0,3,'Remain Constant',NO,'Listening to music',YES,Colleagues,NO
Delhi-NCR,21,0,Average,Laptop/Desktop,12,0,7,3,Youtube,1,3,'Remain Constant',NO,'Reading books',YES,Nothing,YES
Delhi-NCR,20,0,Good,Smartphone,0,0,7.5,3.5,Youtube,5,3,'Remain Constant',NO,'Indoor Games',YES,Nothing,YES
Delhi-NCR,21,4,Average,Laptop/Desktop,2,1,8,3,Instagram,8,2,'Remain Constant',NO,'Online gaming',NO,'Eating outside',NO
Delhi-NCR,20,3,'Very poor',Smartphone,5,1,7,1,Whatsapp,1,3,Increased,NO,Sleep,YES,'Roaming around freely',NO
'Outside Delhi-NCR',16,4,Poor,'Smartphone or Laptop/Desktop',2.5,0.5,6,0.5,Whatsapp,0,3,'Remain Constant',NO,'watching movies,reading books,games,listening to music,sleep,dancing',YES,'school, relatives and friends',YES
'Outside Delhi-NCR',19,0,'Very poor',Laptop/Desktop,8,1,8,2,Whatsapp,1,2,Increased,YES,Cooking,YES,'Roaming around freely',YES
Delhi-NCR,19,1,'Very poor',Laptop/Desktop,3,0,8,3,Instagram,2,3,Increased,YES,'Listening to music',YES,'Roaming around freely',YES
'Outside Delhi-NCR',19,1,Excellent,Laptop/Desktop,1,3,9,2,Youtube,1,5,'Remain Constant',NO,'Listening to music',YES,Travelling,NO
Delhi-NCR,20,2,Good,Laptop/Desktop,1,0,10,1,Whatsapp,1,2,'Remain Constant',NO,'Online gaming',YES,Colleagues,NO
Delhi-NCR,19,2,Average,Smartphone,3,1,9,3,Whatsapp,2,3,Increased,NO,Sleep,YES,School/college,NO
'Outside Delhi-NCR',17,7,Average,Laptop/Desktop,2,0,6,2,Youtube,5,2,Increased,NO,Sleep,YES,School/college,YES
Delhi-NCR,21,0,'Very poor',Laptop/Desktop,2,0,8,3,Whatsapp,11,3,Decreased,NO,'Watching web series',NO,'Roaming around freely',NO
'Outside Delhi-NCR',17,6,Good,Smartphone,4,0,7,1,Whatsapp,5,3,Decreased,NO,'Listening to music',NO,School/college,YES
Delhi-NCR,25,5,Average,Laptop/Desktop,6,0,8,1,Instagram,1,3,'Remain Constant',NO,'Listening to music',NO,'Roaming around freely',YES
Delhi-NCR,19,3,Average,Laptop/Desktop,6,0.5,8,0.6,Linkedin,7,4,Increased,NO,'Reading books',YES,School/college,YES
Delhi-NCR,16,5,'Very poor',Smartphone,2,1,8,2,Whatsapp,8,3,Increased,NO,'Online gaming',YES,'Friends , relatives',NO
Delhi-NCR,17,7,Good,Smartphone,5,0.5,7,2,Whatsapp,5,3,Increased,NO,'Online gaming',NO,'All ',NO
Delhi-NCR,18,1,Average,Smartphone,2,0,10,1,Instagram,3,2,'Remain Constant',NO,'Reading books',NO,'Roaming around freely',NO
'Outside Delhi-NCR',20,5,Excellent,Laptop/Desktop,1,1,8,3,Instagram,1,3,'Remain Constant',NO,'Listening to music',NO,'Friends , relatives',YES
Delhi-NCR,20,3,'Very poor',Laptop/Desktop,9,1,6,1,Whatsapp,1,1,Increased,NO,Meditation,YES,'Roaming around freely',NO
Delhi-NCR,20,1,'Very poor',Laptop/Desktop,3,1,9,4,Instagram,1,2,Increased,NO,'Scrolling through social media',YES,School/college,YES
Delhi-NCR,22,3,Average,Smartphone,3,0,8,2,Instagram,0,3,Increased,NO,'Talking to your relatives',NO,School/college,NO
'Outside Delhi-NCR',16,7,Excellent,Tablet,2,1,6,2,Whatsapp,1,3,Decreased,NO,'Online surfing',NO,School/college,YES
Delhi-NCR,19,2,'Very poor',Laptop/Desktop,1,1,7,5,Instagram,0,4,'Remain Constant',NO,'Talking to your relatives',YES,'Friends , relatives',NO
'Outside Delhi-NCR',17,9,Average,Laptop/Desktop,5,1,6,1,Youtube,1,3,Decreased,NO,'Listening to music',NO,Travelling,YES
'Outside Delhi-NCR',20,0,Average,Laptop/Desktop,1,0,9,5,Whatsapp,5,4,'Remain Constant',YES,'Listening to music',YES,Travelling,YES
Delhi-NCR,21,0,'Very poor',Laptop/Desktop,6,0,6,4,Youtube,5,3,Increased,NO,Meditation,YES,'Roaming around freely',NO
'Outside Delhi-NCR',19,2,'Very poor',Laptop/Desktop,3,1,8,1,Instagram,5,4,'Remain Constant',NO,'Watching web series',YES,Travelling,YES
Delhi-NCR,17,8,'Very poor',Smartphone,2,1,9,0,Whatsapp,1,3,'Remain Constant',NO,'Listening to music',NO,All,NO
'Outside Delhi-NCR',25,1,Average,Laptop/Desktop,3,1,7,3,Whatsapp,5,3,Increased,NO,'Reading books',YES,Travelling,NO
Delhi-NCR,20,3,Average,Smartphone,2,0.5,8,3,Whatsapp,1,3,'Remain Constant',NO,'Listening to music',YES,'Friends , relatives',NO
'Outside Delhi-NCR',21,0,'Very poor',NA,1,0,10,3,Instagram,5,3,'Remain Constant',NO,'Watching web series',NO,'Roaming around freely',NO
'Outside Delhi-NCR',19,5,Excellent,Smartphone,5,1,7,2,Youtube,2,3,Increased,NO,Sleep,YES,Travelling,NO
Delhi-NCR,23,5,Average,Smartphone,5,1,8,1,Whatsapp,5,3,'Remain Constant',NO,'gardening cartoon',YES,'Roaming around freely',YES
'Outside Delhi-NCR',22,2,Average,Laptop/Desktop,8,1,8,2,Linkedin,0,2,'Remain Constant',NO,'Listening to music',NO,School/college,YES
'Outside Delhi-NCR',22,4,Average,Laptop/Desktop,1,1,8,4,Youtube,0,3,Increased,NO,'Online surfing',NO,'Roaming around freely',YES
'Outside Delhi-NCR',18,0,NA,NA,1,1,12,4,Instagram,1,3,'Remain Constant',NO,'Online gaming',YES,'Friends , relatives',YES
Delhi-NCR,21,3,Average,Laptop/Desktop,3,2,6.5,2,Youtube,5,2,Increased,NO,'Scrolling through social media',YES,'Friends , relatives',NO
'Outside Delhi-NCR',22,1,Average,Smartphone,3,1,8,1,Instagram,1,2,Decreased,YES,Cooking,NO,'Roaming around freely',NO
'Outside Delhi-NCR',24,3,'Very poor',Laptop/Desktop,4,0,6,3,Whatsapp,9,3,'Remain Constant',NO,'Listening to music',NO,School/college,NO
Delhi-NCR,14,3,Average,Tablet,6,3,7,3,Instagram,0,2,'Remain Constant',NO,'listening to music,reading books and dancing.',YES,'all of the above',YES
'Outside Delhi-NCR',16,4,'Very poor',Smartphone,3,0,8,4,Youtube,1,4,'Remain Constant',NO,'Dont get distreessed',NO,'Nothing ',YES
Delhi-NCR,19,1,Average,Laptop/Desktop,3,2,7,1,Instagram,5,2,'Remain Constant',YES,'Online gaming',NO,School/college,NO
'Outside Delhi-NCR',21,5,'Very poor',Laptop/Desktop,3,2,10,6,Youtube,0,3,Increased,YES,'Online gaming',NO,'Eating outside',YES
Delhi-NCR,17,2,Average,Laptop/Desktop,5,0,8,4,Youtube,1,3,'Remain Constant',NO,' listening music, motion design, graphic design, sleeping.',NO,'Eating outside and friends.',YES
Delhi-NCR,16,4,Good,Smartphone,2,0.5,9,1,Instagram,13,3,Increased,NO,Sleeping,YES,Colleagues,NO
Delhi-NCR,29,8,Good,Laptop/Desktop,2,1,8,0.5,Instagram,5,4,'Remain Constant',NO,'Web Series',NO,Travelling,NO
'Outside Delhi-NCR',26,1,Good,Laptop/Desktop,4,0,6,6,Facebook,9,3,'Remain Constant',NO,Talking,YES,Travelling,NO
Delhi-NCR,21,5,'Very poor',Smartphone,2,1,12,2,Instagram,0,4,Increased,NO,'Listening to music',NO,School/college,YES
'Outside Delhi-NCR',18,0,'Very poor',Smartphone,0,2,7,6,Instagram,1,4,Increased,NO,Business,YES,'Friends , relatives',YES
Delhi-NCR,19,3,'Very poor',Smartphone,0,0,12,5,Instagram,1,3,Decreased,NO,'Online gaming',NO,'Eating outside',NO
Delhi-NCR,21,2,Average,Laptop/Desktop,2,1,10,2,Youtube,14,3,'Remain Constant',NO,Sleep,NO,School/college,YES
Delhi-NCR,12,1,Good,Laptop/Desktop,3,2,8,2,Youtube,0,4,Increased,NO,Reading,YES,Colleagues,YES
Delhi-NCR,26,0,'Very poor',Smartphone,1,1,7,1,Whatsapp,5,2,Decreased,NO,'Online gaming',YES,Travelling,NO
'Outside Delhi-NCR',20,6,'Very poor',Laptop/Desktop,6,0,6,3,Whatsapp,1,4,Increased,NO,'Reading books',YES,School/college,NO
Delhi-NCR,16,4,'Very poor',Smartphone,2,1,9,2,Youtube,0,2,Decreased,NO,'Many among these ',NO,Travelling,NO
Delhi-NCR,21,0,Average,Laptop/Desktop,2,0,10,5,Twitter,0,3,Increased,NO,'Listening to music',NO,School/college,YES
'Outside Delhi-NCR',21,5,Average,Laptop/Desktop,2,0,8,0.5,Whatsapp,0,2,Increased,NO,Sleep,YES,'Friends , relatives',NO
Delhi-NCR,20,6,Average,Laptop/Desktop,4,0,7,1,Linkedin,1,3,Increased,NO,Cooking,YES,School/college,YES
Delhi-NCR,21,0,'Very poor',Laptop/Desktop,2,1,7,1,Instagram,1,4,'Remain Constant',YES,'Listening to music',NO,Travelling,YES
'Outside Delhi-NCR',21,2,Average,Smartphone,2,1,7,1,Whatsapp,9,3,'Remain Constant',NO,'Online surfing',NO,'All above',YES
Delhi-NCR,19,1,'Very poor',Laptop/Desktop,0,0,12,10,Instagram,5,2,'Remain Constant',NO,'Online gaming',NO,Nothing,NO
'Outside Delhi-NCR',21,2,Average,Laptop/Desktop,2,0,8,2,Instagram,0,3,'Remain Constant',YES,'Reading books',YES,'Eating outside',NO
Delhi-NCR,14,5,Average,Smartphone,2.3,0,8,2,Youtube,2,2,'Remain Constant',NO,'Scrolling through social media',YES,Travelling,YES
Delhi-NCR,22,1,Average,Laptop/Desktop,2,0,11,3,Whatsapp,2,2,Increased,YES,Dancing,NO,'Friends , relatives',NO
Delhi-NCR,19,2,Average,Smartphone,2.5,0,9,2,Facebook,0,3,'Remain Constant',NO,'Online surfing',NO,'Nah, this is my usual lifestyle anyway, just being lazy....',NO
'Outside Delhi-NCR',18,4,Average,Smartphone,1,1,12,1,Instagram,0,2,Increased,NO,'Watching web series',YES,All,NO
'Outside Delhi-NCR',16,8,Average,Laptop/Desktop,6,0,6,1,Youtube,1,4,'Remain Constant',NO,'Watching web series',NO,'Friends , relatives',YES
'Outside Delhi-NCR',43,2,Average,Smartphone,0,1,6,2,Facebook,3,3,Increased,NO,'Talk with childhood friends.',YES,'Family ',NO
'Outside Delhi-NCR',15,4,'Very poor',Tablet,10,0,8,1,Twitter,0,3,'Remain Constant',NO,'Listening to music',YES,'Friends , relatives',NO
'Outside Delhi-NCR',32,1,'Very poor',Laptop/Desktop,10,1,8,2,Twitter,1,3,Increased,NO,'Reading books',YES,School/college,YES
Delhi-NCR,15,3,Good,Laptop/Desktop,3,1,7,1,Youtube,5,2,Increased,NO,Sleeping,YES,Colleagues,YES
'Outside Delhi-NCR',22,0,NA,NA,5,1,7,2,Youtube,0,4,Increased,NO,'Watching web series',YES,School/college,NO
Delhi-NCR,16,4,Average,NA,4,1,6,1,Whatsapp,0,3,Increased,NO,'Listening to music',YES,'Friends , relatives',YES
'Outside Delhi-NCR',21,2,'Very poor',NA,4,0,9,2,Whatsapp,1,4,'Remain Constant',NO,Sleep,YES,Travelling,NO
'Outside Delhi-NCR',14,5,Good,NA,2,1,9,1,Whatsapp,0,4,Increased,NO,Talking,YES,School/college,NO
Delhi-NCR,19,2,'Very poor',NA,1,1,11,3,Whatsapp,1,2,Increased,NO,'Listening to music',NO,'Friends , relatives',NO
'Outside Delhi-NCR',18,1.5,Average,NA,2,1,8,1,Whatsapp,3,2,'Remain Constant',NO,Meditation,YES,School/college,YES
Delhi-NCR,11,4,Average,NA,2,2,10,1,Whatsapp,2,4,'Remain Constant',NO,'Playing ',YES,'Roaming around freely',NO
Delhi-NCR,24,0.5,Average,NA,2,0,8,1,Instagram,1,3,'Remain Constant',NO,'Watching web series',YES,'Eating outside',YES
'Outside Delhi-NCR',21,3,Average,Laptop/Desktop,3,1,8,2,Instagram,1,3,Increased,NO,'Watching web series',YES,'Eating outside',NO
Delhi-NCR,15,5,Average,Smartphone,3,3,8,3,Instagram,5,3,'Remain Constant',NO,'Online gaming',YES,School/college,YES
Delhi-NCR,34,2,Average,Laptop/Desktop,3,1,7,2,Twitter,0,3,'Remain Constant',NO,Sleep,YES,Travelling,YES
Delhi-NCR,17,0.75,Average,Smartphone,5,1,6,2,Youtube,5,1,Increased,YES,'Reading books',YES,School/college,NO
Delhi-NCR,12,1,Excellent,Smartphone,2,1,9,2,Youtube,0,3,Increased,NO,'Online gaming',YES,School/college,YES
Delhi-NCR,16,1,Average,Smartphone,2,1,7,2,Whatsapp,2,3,'Remain Constant',NO,'Listening to music',YES,School/college,NO
Delhi-NCR,17,7,Average,Laptop/Desktop,8,1,6,1,Whatsapp,0,3,Increased,NO,'Listening to music',YES,School/college,YES
Delhi-NCR,14,2.5,Good,Smartphone,1,0.5,6,2,Youtube,0,2,Decreased,NO,Cooking,YES,Colleagues,YES
'Outside Delhi-NCR',16,4,Average,Smartphone,5,1,6,2,Whatsapp,5,2,'Remain Constant',NO,Dancing,NO,Travelling,YES
Delhi-NCR,13,2,Excellent,Smartphone,1,3,11,3,Youtube,5,4,Increased,NO,'Reading books',YES,'Eating outside',NO
Delhi-NCR,23,0,Average,Laptop/Desktop,2,0,7,3,Linkedin,1,3,'Remain Constant',NO,'Listening to music',NO,'Roaming around freely',YES
Delhi-NCR,21,6,'Very poor',Smartphone,0,1,7,4,Instagram,0,4,Increased,NO,'Listening to music',YES,'Only friends',YES
'Outside Delhi-NCR',31,4,Excellent,Laptop/Desktop,2,1,8,1,Facebook,0,3,Increased,NO,Sleep,NO,School/college,YES
Delhi-NCR,23,5,Excellent,Smartphone,1,1,9,2,Whatsapp,1,4,Decreased,NO,'Online gaming',YES,Football,YES
Delhi-NCR,13,1,Excellent,Smartphone,5,3,6,2,Instagram,5,7,Increased,NO,Exercise,YES,School/college,YES
Delhi-NCR,21,3,Average,Laptop/Desktop,0,1,8,3,Instagram,1,3,Increased,YES,'Listening to music',NO,School/college,NO
Delhi-NCR,17,6,Average,Laptop/Desktop,2.5,1,6,0,None,3,3,'Remain Constant',NO,'Reading books',YES,'Roaming around freely',YES
Delhi-NCR,23,3,Good,Laptop/Desktop,3,0,7,2,Linkedin,1,3,'Remain Constant',NO,Cooking,YES,Travelling,NO
Delhi-NCR,13,1,Excellent,Smartphone,2,0,8,0,None,9,3,Increased,NO,'Watching web series',NO,'Friends , relatives',YES
Delhi-NCR,20,1,Average,Laptop/Desktop,2.5,0,6,4,Instagram,0,3,'Remain Constant',NO,'Online gaming',YES,'Roaming around freely',YES
Delhi-NCR,13,0.5,Average,Smartphone,2,2,10,2,Youtube,1,3,Increased,NO,'Online gaming',NO,School/college,YES
Delhi-NCR,14,2,Excellent,Smartphone,1,1,8,1,Whatsapp,5,1,Increased,YES,'Online gaming',YES,School/college,YES
Delhi-NCR,40,1,Average,Laptop/Desktop,2,1,6,4,Whatsapp,1,2,'Remain Constant',NO,'Online surfing',YES,'Eating outside',NO
Delhi-NCR,12,1,Excellent,Smartphone,1.2,0.5,10,0,Whatsapp,5,3,Increased,NO,'Talking to your relatives',YES,'Friends , relatives',YES
Delhi-NCR,20,3,'Very poor',Laptop/Desktop,2,1,8,4,Linkedin,1,3,'Remain Constant',YES,'Listening to music',YES,Travelling,NO
Delhi-NCR,12,1,Good,Smartphone,2,0.5,8,2,Whatsapp,5,4,'Remain Constant',NO,'Listening to music',YES,Travelling,NO
Delhi-NCR,21,3,Average,Laptop/Desktop,3,0,8,2,Instagram,1,4,Decreased,NO,Sleep,YES,Travelling,NO
Delhi-NCR,42,4,Good,Laptop/Desktop,3,0,7,1,Facebook,3,2,Increased,NO,'Social Media',YES,Travelling,YES
'Outside Delhi-NCR',20,3,Good,Smartphone,4,2,7,4,Whatsapp,3,4,'Remain Constant',YES,Talking,YES,School/college,NO
Delhi-NCR,28,0,NA,NA,4,2,7,2,Twitter,5,2,Decreased,NO,Meditation,YES,Travelling,YES
Delhi-NCR,40,2,Good,NA,1,1,8,1,Whatsapp,0,2,'Remain Constant',NO,'Web Series',YES,Travelling,YES
Delhi-NCR,14,3,Excellent,NA,2,0,12,2,Facebook,2,1,Decreased,NO,'Online gaming',NO,School/college,NO
Delhi-NCR,12,1,Average,NA,1,0,12,1,Youtube,0,1,'Remain Constant',NO,'Reading books',YES,'Friends , relatives',NO
Delhi-NCR,14,4,Average,NA,2,1,8,2,Whatsapp,0,3,'Remain Constant',NO,'Listening to music',NO,'Friends , relatives',YES
Delhi-NCR,22,0,Average,NA,0,0,9,2,Linkedin,5,3,'Remain Constant',NO,'Talking to friends',NO,'Roaming around freely',NO
'Outside Delhi-NCR',40,4,Average,NA,4,0,8,2,Whatsapp,0,3,Increased,NO,'Listening to music',YES,Travelling,NO
'Outside Delhi-NCR',21,4,'Very poor',NA,3,1,6,2,Youtube,11,2,'Remain Constant',NO,Meditation,YES,'Normal life',NO
Delhi-NCR,23,3,Good,Smartphone,1,0,6,2,Whatsapp,2,3,'Remain Constant',NO,'Listening to music',YES,Colleagues,NO
Delhi-NCR,12,2,Excellent,Smartphone,2,1,10,1,Youtube,0,4,'Remain Constant',NO,'Reading books',YES,School/college,YES
'Outside Delhi-NCR',17,2,Excellent,Smartphone,3,1,6,2,Whatsapp,5,1,Increased,NO,'Talking to your relatives',YES,School/college,YES
'Outside Delhi-NCR',18,1,Average,Laptop/Desktop,1,0,8,4,Instagram,1,3,Decreased,NO,'Watching web series',YES,'Roaming around freely',YES
'Outside Delhi-NCR',20,1,Average,Laptop/Desktop,2,2,9,4,Instagram,11,2,'Remain Constant',NO,'Listening to music',NO,Travelling,YES
'Outside Delhi-NCR',17,5,Average,Smartphone,3,1,6,1,Facebook,5,1,'Remain Constant',NO,'Online gaming',YES,School/college,YES
Delhi-NCR,20,1,Average,Laptop/Desktop,4,0,8,3,Instagram,1,3,'Remain Constant',NO,'Watching web series',NO,'Friends , relatives',NO
Delhi-NCR,20,3,'Very poor',Laptop/Desktop,4,1,8,2,Whatsapp,3,4,'Remain Constant',NO,Cooking,YES,'Roaming around freely',YES
Delhi-NCR,19,0.75,Poor,Laptop/Desktop,2,1,6,4,Youtube,1,2,'Remain Constant',NO,'Netflix, Friends and Books',YES,'Friends , relatives',NO
'Outside Delhi-NCR',20,4,Good,Laptop/Desktop,2,0,11,1,Whatsapp,1,3,Increased,NO,'Listening to music',YES,Travelling,NO
Delhi-NCR,16,2,Excellent,Smartphone,5,1,8,4,Whatsapp,9,3,Increased,NO,'Online gaming',YES,School/college,YES
Delhi-NCR,13,3,Excellent,Smartphone,2,0,8,1,Youtube,1,3,'Remain Constant',NO,'Listening to music',YES,'Friends , relatives',YES
Delhi-NCR,20,0,Good,Laptop/Desktop,4,1,7,4,Youtube,5,3,'Remain Constant',YES,'Web Series',YES,Travelling,NO
'Outside Delhi-NCR',14,3,Excellent,Smartphone,2,0,10,1,Youtube,0,2,'Remain Constant',NO,'Listening to music',YES,School/college,NO
Delhi-NCR,17,2,Good,Smartphone,1,1,8,3,Facebook,5,3,Decreased,NO,'Online gaming',YES,Travelling,YES
'Outside Delhi-NCR',20,1,'Very poor',Laptop/Desktop,1,0,12,2,Twitter,0,3,Increased,NO,'Listening to music',YES,'Eating outside',NO
Delhi-NCR,17,7,Excellent,Smartphone,1,1,4,1,Youtube,1,1,Decreased,NO,Cooking,YES,School/college,YES
'Outside Delhi-NCR',13,2,Excellent,Smartphone,1,1,6,2,Whatsapp,1,1,Decreased,YES,'Reading books',YES,School/college,YES
Delhi-NCR,13,1,Good,Smartphone,2,1,8,3,Youtube,3,3,'Remain Constant',NO,'Online gaming',YES,School/college,YES
'Outside Delhi-NCR',20,2,'Very poor',Laptop/Desktop,4,1,8,2,Instagram,1,3,'Remain Constant',NO,Meditation,YES,'Friends , relatives',YES
'Outside Delhi-NCR',27,0,Good,Laptop/Desktop,2,0,10,6,Whatsapp,15,3,Decreased,NO,'Online gaming',YES,Colleagues,NO
Delhi-NCR,20,1,Good,Laptop/Desktop,0,1,7,2,Instagram,1,3,Decreased,NO,'Web Series',NO,'Eating outside',YES
Delhi-NCR,20,5,'Very poor',Laptop/Desktop,3,1,7,4,Twitter,1,3,Decreased,NO,'Listening to music',YES,'Roaming around freely',YES
Delhi-NCR,17,4,Average,Smartphone,1,1,8,5,Youtube,10,2,Increased,NO,'Online gaming',YES,'Friends , relatives',NO
Delhi-NCR,27,3,Excellent,Laptop/Desktop,2,2,7,1,Instagram,1,3,Decreased,YES,'Listening to music',YES,Travelling,YES
'Outside Delhi-NCR',14,1,Good,Smartphone,3,1,9,1,None,1,3,Increased,NO,'Online gaming',YES,School/college,YES
Delhi-NCR,9,1,Average,Laptop/Desktop,1,0,8,0,Youtube,0,3,Increased,NO,'Listening to music',NO,'Roaming around freely',NO
Delhi-NCR,14,5,Average,Smartphone,1,1,7,1,Whatsapp,6,2,Decreased,NO,'Watching web series',YES,'Friends , relatives',NO
Delhi-NCR,36,2,Excellent,Tablet,3,1,7,5,Youtube,2,3,Increased,NO,'Online gaming',YES,'Friends , relatives',NO
Delhi-NCR,8,2,Excellent,Laptop/Desktop,2,1,8,1,Whatsapp,5,3,'Remain Constant',NO,Dancing,YES,'Roaming around freely',YES
Delhi-NCR,20,2,Average,Laptop/Desktop,1,1,7,1,Whatsapp,0,2,'Remain Constant',NO,'Watching web series',YES,School/college,YES
'Outside Delhi-NCR',12,2,Average,Laptop/Desktop,1,1,7,2,Instagram,5,2,Increased,NO,Sleeping,YES,'Friends , relatives',YES
Delhi-NCR,19,8,Excellent,Laptop/Desktop,10,1,6,1,Linkedin,1,4,'Remain Constant',NO,'Online gaming',YES,School/college,YES
'Outside Delhi-NCR',24,0,Excellent,Laptop/Desktop,3,1,8,3,Instagram,1,3,Decreased,NO,'Online gaming',NO,Travelling,YES
Delhi-NCR,20,2,Average,Laptop/Desktop,2,2,8,3,Instagram,1,3,'Remain Constant',NO,'Watching web series',YES,'Roaming around freely',YES
Delhi-NCR,22,1,'Very poor',Smartphone,3,0,7,3,Youtube,5,3,'Remain Constant',NO,'Watching web series',YES,'Roaming around freely',NO
'Outside Delhi-NCR',20,3,'Very poor',Laptop/Desktop,0,1,9,4,Youtube,9,4,Decreased,NO,Sleeping,YES,'Friends , relatives',NO
Delhi-NCR,12,1,Excellent,Smartphone,3,1,6,1,Youtube,0,1,'Remain Constant',NO,Cooking,YES,'Friends , relatives',NO
'Outside Delhi-NCR',21,0,'Very poor',Laptop/Desktop,1,0,6,6,Instagram,0,3,'Remain Constant',YES,'Scrolling through social media',NO,School/college,NO
Delhi-NCR,20,2,Average,Laptop/Desktop,3,2,7,3,Instagram,0,2,Decreased,NO,'Talking to your relatives',YES,'Roaming around freely',YES
'Outside Delhi-NCR',32,1,Average,Smartphone,0,0,14,2,Facebook,5,3,'Remain Constant',NO,'Watching web series',YES,School/college,NO
'Outside Delhi-NCR',28,4,Good,Laptop/Desktop,4,1,12,2,Youtube,1,3,Decreased,NO,'Social Media',YES,Travelling,YES
Delhi-NCR,21,2,'Very poor',Laptop/Desktop,0,1,12,5,Instagram,11,4,'Remain Constant',NO,'Listening to music',NO,School/college,NO
'Outside Delhi-NCR',21,2,Average,Laptop/Desktop,2,1,8,2,Whatsapp,5,3,'Remain Constant',YES,'Watching web series',YES,'Friends , relatives',YES
Delhi-NCR,15,5,Average,Laptop/Desktop,3,1,10,3,Instagram,0,4,'Remain Constant',NO,'Listening to music',YES,All,YES
'Outside Delhi-NCR',19,1,'Very poor',Laptop/Desktop,0,1,9,8,Youtube,1,3,'Remain Constant',NO,'Online gaming',NO,'Friends , relatives',NO
'Outside Delhi-NCR',19,3,'Very poor',Laptop/Desktop,1,0,5,1,Youtube,5,3,Increased,NO,'Watching web series',YES,School/college,NO
'Outside Delhi-NCR',18,3,'Very poor',Smartphone,2,0,8,2,Instagram,3,3,'Remain Constant',NO,'Scrolling through social media',YES,'Friends , relatives',NO
Delhi-NCR,14,7,'Very poor',Tablet,3,0,8,0,'None ',0,2,Decreased,NO,Sleeping,NO,Travelling,NO
'Outside Delhi-NCR',18,1,Excellent,Smartphone,2,1,8,1,Facebook,1,2,'Remain Constant',NO,'Online gaming',YES,'Friends , relatives',YES
Delhi-NCR,50,2,Good,Smartphone,2,0,6,2,Youtube,0,3,'Remain Constant',NO,'Listening to music',NO,School/college,YES
'Outside Delhi-NCR',20,0.7,'Very poor',Laptop/Desktop,3.5,0.5,8,3,Instagram,16,4,Increased,NO,'Reading books',YES,'Roaming around freely',YES
'Outside Delhi-NCR',16,2,'Very poor',Laptop/Desktop,2,1,9,2,Instagram,3,2,'Remain Constant',YES,'Listening to music',YES,'Roaming around freely',NO
Delhi-NCR,13,2,Good,Smartphone,1,0,11,2,Youtube,2,2,Increased,YES,'Social Media',NO,School/college,NO
Delhi-NCR,20,3,'Very poor',Laptop/Desktop,4,1,8,2,Twitter,1,3,'Remain Constant',NO,'Reading books',YES,'Eating outside',YES
Delhi-NCR,21,0,'Very poor',Laptop/Desktop,2,1,7,2,Whatsapp,17,3,Increased,NO,'Watching web series',NO,'Friends , relatives',NO
Delhi-NCR,14,3,Excellent,Laptop/Desktop,5,2,10,3,Facebook,2,3,Decreased,NO,'Listening to music',YES,'Friends , relatives',YES
'Outside Delhi-NCR',20,0,'Very poor',Laptop/Desktop,2,0,7,5,Instagram,1,2,Decreased,YES,'Listening to music',YES,'Friends , relatives',NO
Delhi-NCR,22,3,Average,Laptop/Desktop,2,0,7,3,Youtube,1,3,Increased,NO,'Reading books',YES,'Eating outside',YES
Delhi-NCR,13,0.75,Excellent,Smartphone,2,0,7,1,Youtube,1,1,'Remain Constant',NO,'Reading books',NO,School/college,YES
Delhi-NCR,13,3,Good,Smartphone,3,1,8,1,Whatsapp,3,2,Increased,NO,'Online gaming',YES,School/college,YES
Delhi-NCR,16,6,Good,Smartphone,3,1,6,1,Youtube,0,1,Decreased,NO,Talking,YES,Colleagues,YES
'Outside Delhi-NCR',35,4,Average,Smartphone,2,1,6,0.5,Facebook,0,2,'Remain Constant',NO,'Online surfing',YES,'Roaming around freely',NO
'Outside Delhi-NCR',45,3,Excellent,Laptop/Desktop,4,1,8,2,Youtube,0,3,Increased,NO,Meditation,YES,'Friends , relatives',YES
Delhi-NCR,16,0,Good,Smartphone,0,2,6,1,Facebook,9,2,'Remain Constant',NO,'Online gaming',YES,Colleagues,NO
Delhi-NCR,20,4,'Very poor',Laptop/Desktop,6,0,8,0,Youtube,1,2,'Remain Constant',NO,'Reading books',YES,School/college,YES
'Outside Delhi-NCR',21,0,Poor,Laptop/Desktop,9,0,7,2,Instagram,1,3,'Remain Constant',NO,'Listening to music',NO,'Friends , relatives',YES
Delhi-NCR,23,6,Average,Laptop/Desktop,4,1,9,1,Instagram,1,4,'Remain Constant',NO,'Listening to music',NO,'Friends , relatives',NO
'Outside Delhi-NCR',21,2,Average,Laptop/Desktop,4,1,8,8,Instagram,0,2,Increased,NO,'Scrolling through social media',YES,School/college,YES
Delhi-NCR,20,7,Good,Laptop/Desktop,2,0,8,4,Facebook,2,4,Increased,NO,'Social Media',NO,Travelling,NO
'Outside Delhi-NCR',19,0,'Very poor',Smartphone,5,0.5,7,4,Instagram,1,3,'Remain Constant',NO,'Reading books',YES,Travelling,YES
'Outside Delhi-NCR',18,4,'Very poor',Smartphone,2,1,12,2,Instagram,1,3,'Remain Constant',NO,'Listening to music',NO,'Friends , relatives',YES
Delhi-NCR,30,0,NA,NA,0.5,0,7,1,Youtube,3,2,'Remain Constant',NO,'Online gaming',YES,Travelling,YES
Delhi-NCR,18,2,Good,NA,3,1,7,2,Whatsapp,0,3,'Remain Constant',YES,'Online gaming',YES,Travelling,YES
'Outside Delhi-NCR',21,2,Average,NA,4,1,10,8,Instagram,0,3,Increased,NO,'Scrolling through social media',YES,'Friends , relatives',NO
'Outside Delhi-NCR',13,4,Good,NA,2,2,8,2,Youtube,5,2,Decreased,NO,Cooking,YES,School/college,YES
'Outside Delhi-NCR',22,1,Average,NA,3,3,8,3,Instagram,2,4,Increased,NO,Sleeping,YES,'Roaming around freely',YES
Delhi-NCR,21,1,'Very poor',NA,0,0,8,2,Instagram,0,3,'Remain Constant',NO,'Talking to your relatives',YES,Travelling,YES
'Outside Delhi-NCR',21,2,Good,NA,6,0,6.5,0.5,Whatsapp,1,3,Increased,NO,'Web Series',YES,Travelling,YES
Delhi-NCR,21,2,'Very poor',NA,1,0,13,6,Twitter,17,2,Decreased,YES,'Listening to music',NO,School/college,NO
'Outside Delhi-NCR',20,5,Good,Laptop/Desktop,7,0,6,1,Linkedin,1,4,Increased,NO,'Web Series',YES,Travelling,YES
Delhi-NCR,20,0,'Very poor',Laptop/Desktop,10,4,6,2,Whatsapp,1,7,Decreased,NO,'Listening to music',YES,'Friends , relatives',YES
'Outside Delhi-NCR',20,4,'Very poor',Laptop/Desktop,5,1,9,2,Youtube,1,4,Increased,NO,'Listening to music',YES,'Eating outside',NO
'Outside Delhi-NCR',19,4,Average,Laptop/Desktop,0,0,8,6,Instagram,0,3,Increased,NO,'Online gaming',YES,School/college,NO
Delhi-NCR,19,0,Good,Laptop/Desktop,3,1,8,3,Instagram,0,3,Increased,NO,'Social Media',NO,School/college,NO
Delhi-NCR,7,2,Good,Smartphone,2,1,9,1,Whatsapp,5,3,Increased,NO,'Online gaming',YES,Travelling,NO
'Outside Delhi-NCR',21,2,Average,Laptop/Desktop,0,1,7,3,Instagram,1,2,'Remain Constant',NO,'Online gaming',YES,School/college,YES
Delhi-NCR,23,4,'Very poor',Laptop/Desktop,10,1,7,1,Whatsapp,1,2,Decreased,NO,'Listening to music',YES,Travelling,YES
Delhi-NCR,20,5,'Very poor',Laptop/Desktop,2,0,13,4,Instagram,1,2,Increased,NO,'Scrolling through social media',NO,School/college,NO
Delhi-NCR,20,4,'Very poor',Smartphone,4,0,8,4,Instagram,2,3,'Remain Constant',NO,'Online gaming',YES,'Eating outside',YES
'Outside Delhi-NCR',19,4,'Very poor',Laptop/Desktop,3,1,8,3,Whatsapp,5,3,Increased,NO,Meditation,YES,School/college,YES
Delhi-NCR,20,4,'Very poor',Laptop/Desktop,2,1,8,2,Youtube,1,3,Increased,NO,Dancing,YES,'Friends , relatives',YES
'Outside Delhi-NCR',18,4,Average,Smartphone,1,0,9,4,Whatsapp,0,3,Decreased,YES,'Online gaming',YES,'Eating outside',NO
Delhi-NCR,21,4,'Very poor',Tablet,0,3,11,10,Snapchat,1,1,Decreased,NO,Meditation,NO,Travelling,NO
'Outside Delhi-NCR',18,6,'Very poor',Laptop/Desktop,6,1,6,1,Instagram,3,5,'Remain Constant',YES,'Listening to music',YES,School/college,YES
Delhi-NCR,21,6,Excellent,Laptop/Desktop,6,1,6,1,Instagram,1,4,Decreased,NO,Driving,YES,'Roaming around freely',NO
'Outside Delhi-NCR',19,2,'Very poor',Laptop/Desktop,3,0,7,3,Whatsapp,5,2,Increased,NO,'Online surfing',NO,School/college,NO
'Outside Delhi-NCR',19,0,Average,Laptop/Desktop,1,0.5,8,1,Instagram,1,3,Increased,NO,'Scrolling through social media',YES,Nothing,NO
'Outside Delhi-NCR',22,2,Average,Laptop/Desktop,2,0,8,1,Instagram,0,3,'Remain Constant',YES,'Reading books',NO,School/college,NO
Delhi-NCR,21,3,Average,Laptop/Desktop,7,3,6,1,Whatsapp,1,3,'Remain Constant',NO,Meditation,NO,School/college,YES
Delhi-NCR,24,2,Poor,Smartphone,6,0,6,3,Whatsapp,3,4,Decreased,NO,'Listening to music',NO,School/college,NO
'Outside Delhi-NCR',20,4,'Very poor',Laptop/Desktop,4,0,8,2,Whatsapp,1,1,'Remain Constant',NO,'Reading books',NO,School/college,NO
'Outside Delhi-NCR',20,2,Average,Smartphone,2,0,12,4,Instagram,1,3,'Remain Constant',NO,'Talking to your relatives',YES,'Friends , relatives',NO
'Outside Delhi-NCR',24,5,Average,Laptop/Desktop,2,0,6,3,Instagram,1,4,Increased,NO,'Watching web series',YES,'Eating outside',NO
Delhi-NCR,21,5,Average,Laptop/Desktop,6,0,7,2,Linkedin,3,3,Increased,NO,'Online surfing',YES,School/college,YES
Delhi-NCR,20,3,'Very poor',Laptop/Desktop,6,2,5,3,Youtube,1,3,'Remain Constant',NO,'I run',YES,Travelling,YES
'Outside Delhi-NCR',22,5,'Very poor',Smartphone,0,1,8,4,Facebook,1,3,'Remain Constant',NO,'Online surfing',YES,'Eating outside',NO
'Outside Delhi-NCR',20,7,'Very poor',Laptop/Desktop,0,1,6,2,Facebook,0,4,'Remain Constant',NO,'Online gaming',YES,'Roaming around freely',NO
'Outside Delhi-NCR',20,0.5,'Very poor',Smartphone,3,1,10,3,Instagram,5,2,Increased,YES,'Scrolling through social media',NO,'Friends , relatives',NO
Delhi-NCR,19,0,NA,NA,8,1,8,0,None,1,2,'Remain Constant',NO,'Online surfing',NO,'Friends , relatives',NO
'Outside Delhi-NCR',22,0.5,'Very poor',Laptop/Desktop,1,1,8,3,Instagram,1,4,Increased,NO,'Online gaming',NO,'Roaming around freely',NO
'Outside Delhi-NCR',21,4,Average,Laptop/Desktop,1,0,10,2,Whatsapp,1,3,Increased,NO,'Online gaming',YES,School/college,NO
'Outside Delhi-NCR',19,3,'Very poor',Laptop/Desktop,2,1,6,2,Instagram,1,3,Increased,NO,'Online gaming',YES,School/college,NO
'Outside Delhi-NCR',13,3,Average,Smartphone,2,1,7,2,Whatsapp,1,3,Decreased,NO,Dancing,YES,'Friends , relatives',YES
Delhi-NCR,10,4,Average,Smartphone,2,1,8,1,Whatsapp,5,3,'Remain Constant',NO,Dancing,YES,School/college,YES
'Outside Delhi-NCR',21,4,'Very poor',Laptop/Desktop,2,0,6,1,Youtube,1,3,Increased,NO,'Online surfing',YES,Travelling,NO
'Outside Delhi-NCR',20,2,'Very poor',Laptop/Desktop,3,0,11,1,Whatsapp,0,3,'Remain Constant',NO,Sleeping,NO,School/college,NO
Delhi-NCR,22,1,'Very poor',Smartphone,2,1,6,2,Instagram,1,3,Increased,NO,'Online surfing',YES,School/college,YES
Delhi-NCR,20,4,Average,Laptop/Desktop,0,0,12,2,Instagram,5,3,Increased,NO,'Scrolling through social media',NO,'Roaming around freely',NO
'Outside Delhi-NCR',20,0,Poor,Laptop/Desktop,2,0,10,4,Instagram,1,3,Increased,NO,'Online gaming',NO,'Friends , relatives',NO
Delhi-NCR,20,0,Average,Laptop/Desktop,1,1,8,4,Whatsapp,1,3,Increased,NO,Sleeping,YES,School/college,NO
'Outside Delhi-NCR',21,0,Average,Smartphone,4,1,7,2,Facebook,9,4,Increased,NO,'Online gaming',YES,'Friends , relatives',YES
Delhi-NCR,19,4,'Very poor',Laptop/Desktop,3,2,8,2,Instagram,0,4,'Remain Constant',NO,'Online gaming',YES,'Friends , relatives',YES
'Outside Delhi-NCR',13,2,Excellent,Smartphone,2,1,6,6,Instagram,18,4,Increased,NO,'Online gaming',YES,'Friends , relatives',YES
'Outside Delhi-NCR',20,2,Average,Laptop/Desktop,3,0,7,5,Instagram,15,2,Increased,NO,'Online gaming',NO,'Eating outside',NO
'Outside Delhi-NCR',17,2,Average,Smartphone,5,3,5,1,Whatsapp,3,3,Decreased,NO,Running,YES,School/college,NO
'Outside Delhi-NCR',11,1,Good,Laptop/Desktop,1,1,15,3,Youtube,0,4,Increased,NO,'Listening to music',YES,School/college,YES
Delhi-NCR,17,2,Excellent,Smartphone,3,1,8,3,Whatsapp,0,2,Increased,NO,'Listening to music',YES,School/college,YES
'Outside Delhi-NCR',17,1,Average,Smartphone,2,0,8,1,Youtube,0,2,Decreased,NO,'Talking to your relatives',YES,School/college,NO
Delhi-NCR,19,4,'Very poor',Laptop/Desktop,5,0,8,3,Twitter,5,3,Increased,NO,'Watching web series',YES,School/college,NO
'Outside Delhi-NCR',20,6,Good,Laptop/Desktop,5,2,6,10,Twitter,19,3,'Remain Constant',NO,Talking,YES,School/college,YES
Delhi-NCR,18,3,Good,Laptop/Desktop,4,2,7,2,Youtube,5,3,Increased,NO,Dancing,YES,Travelling,YES
Delhi-NCR,20,4,Average,Laptop/Desktop,3,0,8,4,Youtube,5,4,Increased,NO,'Listening to music',YES,'Eating outside',NO
Delhi-NCR,19,0,'Very poor',Laptop/Desktop,1,0,9,6,Twitter,1,4,Increased,NO,Sleeping,NO,Travelling,NO
Delhi-NCR,17,3,Average,Smartphone,3,3,9,2,Youtube,1,3,Increased,NO,'Online gaming',NO,'Friends , relatives',NO
'Outside Delhi-NCR',19,0,'Very poor',Smartphone,0,1,10,7,Youtube,0,3,Increased,YES,'Online gaming',YES,School/college,NO
'Outside Delhi-NCR',21,1,Average,Laptop/Desktop,8,2,8,2,Whatsapp,0,3,'Remain Constant',YES,'Online gaming',NO,'Roaming around freely',NO
'Outside Delhi-NCR',34,2,Average,Laptop/Desktop,1,0,7,6,Whatsapp,15,3,'Remain Constant',NO,'Listening to music',YES,Travelling,YES
'Outside Delhi-NCR',15,4,'Very poor',Smartphone,4,0,7,1,Youtube,5,3,Increased,NO,'Listening to music',NO,'Friends , relatives',NO
'Outside Delhi-NCR',19,2,'Very poor',Laptop/Desktop,0,1,12,2,Instagram,0,3,Decreased,YES,'Listening to music',NO,Travelling,NO
Delhi-NCR,24,0,NA,NA,1,0,10,6,Instagram,2,4,Increased,NO,'Listening to music',NO,School/college,NO
'Outside Delhi-NCR',17,6,Average,Smartphone,4,0,7,9,Youtube,3,2,Increased,NO,'Scrolling through social media',YES,'Friends , relatives',NO
Delhi-NCR,26,2,'Very poor',Laptop/Desktop,1,1,8,4,Facebook,1,3,Decreased,NO,'Scrolling through social media',YES,Travelling,NO
Delhi-NCR,20,0,'Very poor',Laptop/Desktop,1,1,7,0.5,Instagram,3,3,Increased,NO,'Reading books',YES,School/college,YES
'Outside Delhi-NCR',22,3,Average,Laptop/Desktop,6,2,8,4,Instagram,0,4,'Remain Constant',NO,Cooking,YES,'Friends , relatives',YES
'Outside Delhi-NCR',20,6,Poor,Laptop/Desktop,2,2,8,1,Instagram,1,3,Decreased,NO,'Listening to music',NO,'Roaming around freely',YES
'Outside Delhi-NCR',21,4,'Very poor',Laptop/Desktop,2,2,8,4,Youtube,9,3,Decreased,NO,'Watching web series',YES,'Friends , relatives',YES
'Outside Delhi-NCR',14,3,Good,'Smartphone or Laptop/Desktop',2,0,6,1,Whatsapp,0,1,Increased,NO,'Listening to music',YES,School/college,YES
'Outside Delhi-NCR',20,5,'Very poor',Laptop/Desktop,6,1,7,2,Youtube,1,3,'Remain Constant',NO,'Watching web series',YES,'Eating outside',NO
Delhi-NCR,19,2,Excellent,Smartphone,2,1,10,2,Youtube,0,2,'Remain Constant',NO,Sleeping,YES,School/college,YES
Delhi-NCR,44,3,Average,Smartphone,4,0,6,1,Facebook,0,2,'Remain Constant',NO,'Reading books',YES,'Roaming around freely',YES
'Outside Delhi-NCR',20,1,'Very poor',Tablet,2,3,8,2,Whatsapp,5,2,Decreased,NO,'Reading books',YES,'Friends , relatives',YES
Delhi-NCR,22,3,Average,Laptop/Desktop,6,1,6,3,Whatsapp,5,3,'Remain Constant',NO,Sleeping,YES,'The idea of being around fun loving people but this time has certainly made us all to reconnect (and fill the gap if any) with our families and relatives so it is fun but certainly we do miss hanging out with friends',NO
'Outside Delhi-NCR',21,1,Poor,Smartphone,4,1,8,4,Youtube,1,3,'Remain Constant',NO,'Online surfing',YES,School/college,YES
Delhi-NCR,20,5,'Very poor',Laptop/Desktop,2,0,8,1,Linkedin,5,3,'Remain Constant',NO,'Online surfing',YES,'Friends , relatives',YES
Delhi-NCR,18,4,'Very poor',Tablet,4,0,9,2,Instagram,5,3,'Remain Constant',NO,'Watching web series',YES,Travelling,NO
'Outside Delhi-NCR',15,1,Good,Smartphone,2,1,8,1,Whatsapp,5,2,Increased,NO,Meditation,YES,School/college,NO
'Outside Delhi-NCR',19,2,Average,Smartphone,0,0,8,10,Instagram,0,2,Decreased,NO,'Online gaming',YES,'Friends , relatives',NO
'Outside Delhi-NCR',24,2,Average,Smartphone,2,0,6,3,Whatsapp,1,2,Decreased,NO,Sleeping,NO,School/college,NO
Delhi-NCR,16,7,Average,Smartphone,4,1,6,1,Whatsapp,1,4,'Remain Constant',NO,'Listening to music',YES,'Eating outside',YES
'Outside Delhi-NCR',21,0,Poor,Smartphone,8,0,7,2,Whatsapp,3,3,'Remain Constant',YES,'Online surfing',NO,School/college,YES
'Outside Delhi-NCR',17,4,Good,Smartphone,3,3,6,5,Instagram,12,4,Decreased,NO,Exercise,YES,All,YES
Delhi-NCR,15,5,Good,Smartphone,2,1,7,0,Youtube,1,2,Increased,NO,'Online gaming',YES,Colleagues,NO
'Outside Delhi-NCR',16,2,'Very poor',Smartphone,1,0,9,1,Whatsapp,1,3,Decreased,NO,'Reading books',YES,School/college,NO
Delhi-NCR,21,6,Average,Laptop/Desktop,2,1,7,1.5,Youtube,7,3,'Remain Constant',NO,'Watching web series',YES,'My normal routine',NO
Delhi-NCR,13,2,Excellent,Smartphone,2,1,9,2,Facebook,0,3,Increased,NO,'Scrolling through social media',NO,School/college,YES
Delhi-NCR,22,3,'Very poor',Smartphone,2,1,9,1,Whatsapp,0,4,'Remain Constant',YES,'Scrolling through social media',YES,'Friends , relatives',NO
'Outside Delhi-NCR',15,4,Average,Laptop/Desktop,4,1,11,1,Instagram,5,5,'Remain Constant',NO,'Listening to music',YES,'Friends , relatives',YES
'Outside Delhi-NCR',26,0.5,'Very poor',Smartphone,1,0,6,1,Whatsapp,0,3,Decreased,YES,Sleeping,NO,School/college,NO
Delhi-NCR,21,0,'Very poor',Laptop/Desktop,2,0,10,6,Youtube,1,2,'Remain Constant',NO,'Online gaming',YES,'Friends , relatives',NO
'Outside Delhi-NCR',13,1,Good,Smartphone,1,1,8,1,Youtube,5,3,'Remain Constant',NO,'Listening to music',YES,School/college,NO
Delhi-NCR,21,3,Average,Laptop/Desktop,0,2,8,2,Instagram,5,3,Increased,NO,'Online gaming',NO,'Friends , relatives',NO
'Outside Delhi-NCR',21,3,'Very poor',Smartphone,1,1,8,2,Instagram,1,3,Increased,NO,'Watching web series',YES,Travelling,YES
Delhi-NCR,17,2,Average,Smartphone,1,1,8,7,Instagram,1,4,Increased,NO,'Watching web series',YES,'Roaming around freely',NO
Delhi-NCR,20,1,Good,Smartphone,3,1,8,3,Youtube,0,4,'Remain Constant',NO,Reading,YES,School/college,NO
Delhi-NCR,18,3,Good,Smartphone,2,0,8,1,Youtube,0,3,Decreased,NO,'Listening to music',NO,School/college,YES
Delhi-NCR,19,2,'Very poor',Laptop/Desktop,8,0,8,1,Youtube,1,4,Decreased,YES,Sleeping,NO,'Eating outside',NO
Delhi-NCR,21,4,Average,Laptop/Desktop,4,1,8,3,Instagram,0,3,Increased,NO,'Listening to music',NO,School/college,NO
Delhi-NCR,20,8,Excellent,Smartphone,8,1,7,2,Youtube,0,4,Increased,NO,'Watching web series',YES,'Roaming around freely',YES
Delhi-NCR,21,8,Good,Laptop/Desktop,2,1,7,1,Whatsapp,1,3,'Remain Constant',NO,Talking,YES,'Eating outside',YES
'Outside Delhi-NCR',32,2,Good,Smartphone,0,0,11,1,Whatsapp,2,4,'Remain Constant',NO,Meditation,NO,'Eating outside',NO
Delhi-NCR,19,4,Good,Laptop/Desktop,4,2,8,6,Instagram,15,3,Increased,NO,Meditation,YES,Travelling,NO
Delhi-NCR,18,2,'Very poor',Smartphone,0,3,8,1,Twitter,1,3,Increased,NO,Exercising,YES,ALL,NO
Delhi-NCR,23,0,NA,NA,1,0,9,3,Instagram,5,2,'Remain Constant',NO,'Scrolling through social media',YES,'Roaming around freely',NO
Delhi-NCR,18,0,'Very poor',Smartphone,0,0,7,3,Instagram,5,4,'Remain Constant',YES,'Scrolling through social media',YES,'Friends , relatives',NO
Delhi-NCR,19,2,'Very poor',Laptop/Desktop,1,2,8,3,Instagram,5,4,Increased,NO,Sleeping,NO,School/college,YES
Delhi-NCR,19,2,'Very poor',Smartphone,2,0,8,1.5,Instagram,0,2,Decreased,NO,'Watching web series',YES,'Roaming around freely',NO
'Outside Delhi-NCR',19,3,Excellent,Laptop/Desktop,0,0,9,6,Whatsapp,1,2,'Remain Constant',YES,Meditation,YES,Nothing,YES
Delhi-NCR,23,4,'Very poor',Smartphone,4,1,8,2,Youtube,5,2,Increased,NO,Cooking,YES,'Eating outside',NO
Delhi-NCR,25,0,NA,NA,2,1,9,2,Whatsapp,0,2,Increased,NO,'Listening to music',NO,'Roaming around freely',NO
Delhi-NCR,22,4,'Very poor',Laptop/Desktop,1,0,9,1,Youtube,0,4,'Remain Constant',NO,'Listening to music',YES,'Eating outside',YES
Delhi-NCR,12,6,Good,Tablet,4,0,7,1,Youtube,5,4,Increased,NO,'Online gaming',YES,School/college,NO
Delhi-NCR,8,2,Excellent,Laptop/Desktop,1,1,5,1,Youtube,0,2,'Remain Constant',NO,Sleeping,YES,School/college,YES
Delhi-NCR,17,0.75,Excellent,Smartphone,4,1,7,1,Whatsapp,10,2,Decreased,NO,Sleeping,YES,School/college,YES
Delhi-NCR,21,3,Excellent,Laptop/Desktop,1,0,11,3,Twitter,5,1,'Remain Constant',NO,'Reading books',NO,'Eating outside',YES
Delhi-NCR,14,3,Average,Smartphone,2,2,7,2,Whatsapp,5,3,'Remain Constant',NO,'Online gaming',NO,School/college,YES
'Outside Delhi-NCR',20,4,'Very poor',Smartphone,3,0,8,1,Facebook,1,1,Increased,NO,'Scrolling through social media',YES,NOTHING,NO
Delhi-NCR,22,0,'Very poor',Smartphone,2,1,6,0.5,Youtube,1,1,Decreased,NO,'Talking to your relatives',YES,'Roaming around freely',YES
Delhi-NCR,13,6,Average,Tablet,3,1,10,1,Snapchat,15,3,'Remain Constant',NO,'Talking to your relatives',YES,ALL,YES
Delhi-NCR,21,2,'Very poor',Smartphone,0.5,1,8,1,Youtube,1,4,Increased,NO,'Listening to music',YES,Travelling,YES
Delhi-NCR,36,3,Excellent,Laptop/Desktop,2,0,8,2,Facebook,1,3,'Remain Constant',NO,'Reading books',YES,'Eating outside',NO
Delhi-NCR,13,4,Good,'Any Gadget',3,1,9,3,Instagram,5,2,Decreased,NO,Cooking,YES,Colleagues,YES
'Outside Delhi-NCR',24,2,Average,Smartphone,1,1,7,4,Instagram,1,3,'Remain Constant',NO,Football,YES,School/college,YES
'Outside Delhi-NCR',46,2,'Very poor',Smartphone,0.5,0.25,7,1,Whatsapp,0,3,'Remain Constant',NO,Cooking,NO,Travelling,NO
Delhi-NCR,16,5,Good,Laptop/Desktop,8,0.5,6,0.4,Instagram,1,3,'Remain Constant',NO,'Online gaming',NO,Colleagues,YES
Delhi-NCR,25,2,Good,Laptop/Desktop,3,0,7,2,Linkedin,2,2,'Remain Constant',NO,Talking,YES,'Eating outside',YES
Delhi-NCR,24,6,Good,Laptop/Desktop,8,0,9,2,Youtube,1,3,Decreased,YES,Reading,YES,Colleagues,YES
Delhi-NCR,17,4,'Very poor',Smartphone,2,0,10,3,Facebook,9,2,'Remain Constant',NO,'Online surfing',YES,School/college,YES
Delhi-NCR,16,1,Average,Smartphone,2,0,10,2,Youtube,2,4,'Remain Constant',NO,'Online gaming',YES,School/college,NO
Delhi-NCR,20,3,'Very poor',Laptop/Desktop,6,1,8,3,Instagram,0,4,Increased,NO,'Online surfing',YES,School/college,YES
Delhi-NCR,40,5,'Very poor',Laptop/Desktop,3,0,6,3,Whatsapp,1,3,Increased,YES,Sleeping,YES,'Being social ',YES
'Outside Delhi-NCR',32,1,Average,Laptop/Desktop,2,0.5,7,3,Whatsapp,1,3,Increased,YES,'Scrolling through social media',YES,'Roaming around freely',NO
'Outside Delhi-NCR',14,5,Average,Smartphone,2,0,9,1,Whatsapp,5,2,'Remain Constant',NO,'Online gaming',YES,School/college,YES
Delhi-NCR,18,4,Average,Laptop/Desktop,2,3,7,4,Instagram,0,2,Decreased,NO,'Online surfing',NO,School/college,NO
Delhi-NCR,52,0,Good,Laptop/Desktop,2,1,8,2,Youtube,1,4,'Remain Constant',NO,Reading,YES,Colleagues,YES
Delhi-NCR,21,1,'Very poor',Laptop/Desktop,8,0,8,2,Youtube,5,2,Decreased,YES,'Scrolling through social media',NO,'Friends , relatives',YES
Delhi-NCR,21,6,'Very poor',Laptop/Desktop,3,0,8,4,Linkedin,0,3,Increased,YES,'Listening to music',NO,'Eating outside',NO
Delhi-NCR,21,4,Average,Laptop/Desktop,3,0,8,2,Whatsapp,0,3,Decreased,NO,'Scrolling through social media',NO,'Friends , relatives',NO
Delhi-NCR,22,1,'Very poor',Laptop/Desktop,10,2,7,1,Whatsapp,1,3,'Remain Constant',NO,Writing,YES,'Roaming around freely',YES
Delhi-NCR,19,0,'Very poor',Smartphone,4,0,8,4,Instagram,1,1,Increased,NO,'Reading books',NO,'Friends , relatives',NO
'Outside Delhi-NCR',14,4,Good,Smartphone,1,1,8,1,Facebook,3,2,Increased,NO,'Social Media',NO,Colleagues,YES
Delhi-NCR,18,1,Average,Smartphone,2,0,7,1,Whatsapp,1,3,Decreased,YES,Cooking,YES,School/college,NO
Delhi-NCR,17,2,Excellent,Smartphone,3,2,10,1,Youtube,0,2,Increased,NO,'Watching web series',YES,'Friends , relatives',YES
Delhi-NCR,21,2,Average,Laptop/Desktop,0,0,7,5,Youtube,1,3,Decreased,NO,'Online gaming',YES,Travelling,NO
Delhi-NCR,22,2,'Very poor',Laptop/Desktop,2,0,6,5,Instagram,1,2,Increased,NO,'Online surfing',YES,School/college,YES
'Outside Delhi-NCR',15,3,'Very poor',Smartphone,2,0,10,1,Youtube,5,2,Increased,NO,'Online surfing',YES,School/college,NO
Delhi-NCR,25,6,Good,Laptop/Desktop,0,1,7,3,Instagram,1,2,Increased,NO,'Web Series',YES,Colleagues,NO
'Outside Delhi-NCR',17,2,Excellent,Smartphone,3,1,8,1,Facebook,5,1,Increased,NO,Sleeping,YES,School/college,YES
'Outside Delhi-NCR',25,1,Average,Laptop/Desktop,4,0.5,9,2,Whatsapp,11,3,Increased,NO,'Online surfing',YES,School/college,NO
Delhi-NCR,22,1,'Very poor',Smartphone,0,0,6,2,Instagram,5,3,Increased,YES,'Watching web series',NO,School/college,NO
'Outside Delhi-NCR',21,0,'Very poor',Smartphone,3,0,8,4,Instagram,0,3,'Remain Constant',YES,'Scrolling through social media',YES,'Friends , relatives',NO
'Outside Delhi-NCR',20,1,Good,Laptop/Desktop,3,1,12,3,Youtube,5,4,'Remain Constant',NO,Reading,YES,School/college,YES
'Outside Delhi-NCR',21,2,Good,Smartphone,5,0,12,3,Youtube,?,4,'Remain Constant',NO,'Listening to music',NO,Travelling,NO
Delhi-NCR,13,3.5,Good,Smartphone,2,2,9,1,Whatsapp,15,1,Increased,YES,'Listening to music',YES,Colleagues,YES
Delhi-NCR,32,6,Good,Laptop/Desktop,2,1,5,2,Youtube,5,2,Increased,NO,Dancing,YES,Travelling,YES
Delhi-NCR,34,2,Average,Laptop/Desktop,2,1,7,4,Facebook,5,2,'Remain Constant',NO,Cooking,NO,'Friends , relatives',NO
Delhi-NCR,22,0,'Very poor',Smartphone,1,0,8,5,Whatsapp,7,3,'Remain Constant',NO,'Reading books',NO,'Roaming around freely',NO
'Outside Delhi-NCR',21,4,Average,Laptop/Desktop,4,1,6,1,Linkedin,0,3,'Remain Constant',YES,Meditation,NO,School/college,YES
Delhi-NCR,17,1,Good,Smartphone,1,1,8,2,Instagram,0,3,Increased,NO,'Web Series',YES,School/college,NO
Delhi-NCR,13,4,Excellent,Smartphone,5,1,13,2,Whatsapp,2,2,Decreased,YES,'Reading books',YES,'Friends , relatives',YES
Delhi-NCR,30,4,Average,Laptop/Desktop,3,1,7,1,Youtube,0,3,'Remain Constant',NO,singing,NO,School/college,NO
Delhi-NCR,21,2,Average,Smartphone,1,1,9,2,Youtube,5,3,'Remain Constant',NO,'Watching web series',YES,School/college,NO
'Outside Delhi-NCR',28,3,Good,Laptop/Desktop,4,1,9,2,Youtube,1,3,'Remain Constant',NO,'Listening to music',YES,Travelling,YES
Delhi-NCR,21,4,'Very poor',Laptop/Desktop,3,0,6,2,Instagram,1,2,'Remain Constant',NO,'Online gaming',NO,'Eating outside',NO
'Outside Delhi-NCR',15,2,Excellent,Smartphone,5,3,11,1,Whatsapp,0,4,Increased,NO,'Reading books',YES,School/college,NO
Delhi-NCR,16,1,Good,Smartphone,1,1,7,2,Youtube,5,2,'Remain Constant',NO,'Online gaming',YES,School/college,YES
Delhi-NCR,40,3,Average,Smartphone,1,0.5,7,4,Instagram,0,3,'Remain Constant',NO,'Talking to your relatives',YES,Travelling,YES
Delhi-NCR,43,2,Good,Laptop/Desktop,2,1,7,1,Whatsapp,0,2,'Remain Constant',NO,Sleeping,YES,Travelling,YES
Delhi-NCR,25,1,Average,Smartphone,2,0,10,1,Whatsapp,0,3,Increased,NO,Cooking,YES,School/college,NO
'Outside Delhi-NCR',24,0,NA,NA,1,0,8,2,Linkedin,0,3,Increased,NO,'Scrolling through social media',NO,'Previous mistakes',NO
'Outside Delhi-NCR',16,2,Good,NA,5,1,9,1,Instagram,0,1,Decreased,NO,Reading,NO,School/college,YES
Delhi-NCR,16,0.8,'Very poor',NA,1,0,8,1,Youtube,0,3,'Remain Constant',NO,'Listening to music',YES,School/college,NO
Delhi-NCR,34,2,Good,NA,1,1,9,2,Whatsapp,0,3,Increased,NO,Talking,YES,Colleagues,YES
'Outside Delhi-NCR',28,2,Excellent,NA,2,1,7,1,Facebook,0,2,Decreased,NO,'Scrolling through social media',YES,'Friends , relatives',YES
'Outside Delhi-NCR',17,0.75,Good,Smartphone,2,2,6,1,Instagram,0,3,Increased,NO,Exercise,YES,School/college,YES
'Outside Delhi-NCR',18,0.75,Good,Smartphone,1,1,12,1,Facebook,0,3,Increased,NO,Exercise,YES,School/college,YES
'Outside Delhi-NCR',17,0.75,Good,Smartphone,2,1,12,1,Instagram,0,3,Increased,NO,Exercise,YES,School/college,YES
Delhi-NCR,30,4,Excellent,Laptop/Desktop,4,0,5,6,Whatsapp,0,2,'Remain Constant',NO,'Watching web series',YES,'Roaming around freely',YES
Delhi-NCR,19,4,Average,Laptop/Desktop,4,1,8,0,Youtube,1,2,Increased,NO,'Online gaming',NO,'Roaming around freely',NO
Delhi-NCR,21,0,'Very poor',Smartphone,2,0,10,2,Instagram,1,3,'Remain Constant',NO,'Watching web series',NO,'Roaming around freely',NO
'Outside Delhi-NCR',20,4,Good,Laptop/Desktop,6,0,8,3,Facebook,1,3,Increased,NO,'Online gaming',YES,Travelling,YES
Delhi-NCR,19,5,'Very poor',Smartphone,1,1,5,2,Youtube,9,3,Increased,NO,'Listening to music',YES,School/college,NO
Delhi-NCR,19,3,'Very poor',Laptop/Desktop,2,1,8,3,Youtube,1,3,'Remain Constant',NO,Dancing,YES,School/college,NO
Delhi-NCR,19,0,'Very poor',Smartphone,0,0,12,4,Youtube,15,3,Decreased,NO,'Watching web series',NO,Travelling,NO
'Outside Delhi-NCR',20,4,Average,Laptop/Desktop,2,1,7,1,Quora,1,3,Decreased,YES,Exercising,YES,'Roaming around freely',NO
Delhi-NCR,19,4,'Very poor',Smartphone,5,0,6,2,Whatsapp,1,3,Increased,NO,'Reading books',YES,School/college,YES
'Outside Delhi-NCR',20,0,'Very poor',Laptop/Desktop,3,0,8,4,Youtube,5,4,Increased,YES,Meditation,NO,Travelling,NO
'Outside Delhi-NCR',19,2,'Very poor',Laptop/Desktop,2,1,9,1,Instagram,1,2,Decreased,YES,'Listening to music',YES,Travelling,YES
Delhi-NCR,21,6,'Very poor',Smartphone,4,1,7,2,Whatsapp,1,4,Increased,NO,'Scrolling through social media',NO,'Friends , relatives',NO
Delhi-NCR,20,4,'Very poor',Smartphone,3,0,8,3,Youtube,1,3,'Remain Constant',NO,'Online gaming',NO,Travelling,NO
Delhi-NCR,20,4,'Very poor',Laptop/Desktop,4,1,7,1,Instagram,5,4,'Remain Constant',NO,Sleeping,YES,'Friends , relatives',NO
Delhi-NCR,20,5,Average,Laptop/Desktop,0.5,0,8,1,Whatsapp,3,3,'Remain Constant',NO,'Scrolling through social media',YES,School/college,NO
Delhi-NCR,20,5,'Very poor',Smartphone,2,1,7,1,Youtube,1,5,Increased,NO,Cardio,YES,'Roaming around freely',YES
'Outside Delhi-NCR',22,6,Average,Smartphone,2,1,11,6,Instagram,5,4,Increased,YES,'Watching web series',NO,'Friends , relatives',NO
Delhi-NCR,22,3,'Very poor',Laptop/Desktop,2,0,9,4,Instagram,0,4,Increased,NO,'Online gaming',YES,'Friends , relatives',NO
Delhi-NCR,21,1,Average,Smartphone,1,2,8,2,Instagram,3,3,Decreased,NO,'Online gaming',YES,'Roaming around freely',NO
Delhi-NCR,30,2,'Very poor',Laptop/Desktop,1,1,5,1,Youtube,1,3,'Remain Constant',NO,'Talking to your relatives',YES,'Roaming around freely',YES
Delhi-NCR,21,2,'Very poor',Laptop/Desktop,2,0,6,3,Whatsapp,1,3,'Remain Constant',NO,'Online surfing',NO,'Friends , relatives',NO
Delhi-NCR,22,3,Average,Laptop/Desktop,3,1,8,3,Instagram,1,2,Decreased,NO,Dancing,NO,'Friends , relatives',YES
'Outside Delhi-NCR',21,4,Good,Smartphone,3,1,8,3,Instagram,2,3,Increased,NO,'Online gaming',YES,Colleagues,YES
'Outside Delhi-NCR',21,5,'Very poor',Smartphone,1,0.5,9,1.5,Instagram,1,3,'Remain Constant',NO,'Scrolling through social media',NO,'Roaming around freely',NO
'Outside Delhi-NCR',19,5,Good,Laptop/Desktop,3,0,9,5,Whatsapp,0,3,'Remain Constant',NO,'Online gaming',YES,Travelling,YES
Delhi-NCR,22,1,'Very poor',Laptop/Desktop,2,1,9,1.5,Whatsapp,3,3,'Remain Constant',YES,'Watching web series',NO,'Friends , relatives',NO
Delhi-NCR,20,6,Average,Laptop/Desktop,2,1,8,4,Instagram,1,2,'Remain Constant',NO,'Online gaming',NO,'Roaming around freely',NO
Delhi-NCR,21,3,Excellent,Laptop/Desktop,6.5,0,7,0.5,Whatsapp,1,3,'Remain Constant',NO,'Listening to music',NO,'Roaming around freely',YES
'Outside Delhi-NCR',21,3,Average,Laptop/Desktop,2,1,7,2,Youtube,0,3,Decreased,NO,'Online surfing',YES,Travelling,YES
'Outside Delhi-NCR',21,0,'Very poor',Laptop/Desktop,4,1,8,1,Linkedin,1,4,'Remain Constant',NO,'Scrolling through social media',NO,'Roaming around freely',YES
'Outside Delhi-NCR',21,5,Good,Laptop/Desktop,4,2,8,1,Instagram,1,4,Decreased,YES,Cooking,NO,Travelling,NO
Delhi-NCR,22,0,'Very poor',Smartphone,0.5,1,10,1,Youtube,1,3,Increased,NO,'Online gaming',YES,'Eating outside',NO
Delhi-NCR,20,0,'Very poor',Laptop/Desktop,0,0,10,10,Instagram,1,3,Increased,NO,'Online gaming',YES,'Friends , relatives',NO
Delhi-NCR,20,3,Good,Laptop/Desktop,3,1,7,2,Instagram,0,2,'Remain Constant',NO,'Online gaming',YES,School/college,YES
Delhi-NCR,18,2,Average,Smartphone,1,1,10,4,Youtube,0,4,Increased,NO,'Online gaming',NO,'Eating outside',NO
Delhi-NCR,19,0,Average,Laptop/Desktop,3,1,9,2,Instagram,1,2,'Remain Constant',NO,'Online gaming',NO,'Eating outside',NO
Delhi-NCR,21,3,Average,Laptop/Desktop,4,1,7,1,Youtube,5,4,Decreased,NO,Meditation,YES,'Friends , relatives',NO
'Outside Delhi-NCR',19,4,Poor,Laptop/Desktop,5,2,7,0.5,Whatsapp,1,4,'Remain Constant',YES,'Listening to music',YES,School/college,YES
'Outside Delhi-NCR',22,3,'Very poor',Laptop/Desktop,3,0,7,4,Youtube,1,3,Increased,NO,'Listening to music',NO,'Friends , relatives',NO
Delhi-NCR,21,7,'Very poor',Laptop/Desktop,0,0,8,3,Instagram,1,3,'Remain Constant',NO,'Online surfing',NO,'Eating outside',YES
'Outside Delhi-NCR',20,0,'Very poor',Laptop/Desktop,2,2,9,2,Instagram,3,3,Decreased,NO,'Listening to music',YES,School/college,YES
Delhi-NCR,20,4,'Very poor',Smartphone,2,1,6,2,Instagram,0,3,Increased,NO,'I cant de-stress myslef',YES,all,YES
Delhi-NCR,21,4,Good,Smartphone,2,1,7,3,Instagram,1,3,'Remain Constant',NO,'Listening to music',YES,School/college,YES
Delhi-NCR,23,3,'Very poor',Laptop/Desktop,6,1,7,1.5,Instagram,3,3,Increased,YES,'working out and some physical activity',YES,School/college,YES
Delhi-NCR,22,0,'Very poor',Laptop/Desktop,1,0,14,2,Whatsapp,5,3,Increased,NO,Sleeping,NO,'Roaming around freely',NO
'Outside Delhi-NCR',20,4,'Very poor',Laptop/Desktop,1,2,12,2,Whatsapp,5,3,'Remain Constant',NO,'Listening to music',YES,ALL,YES
Delhi-NCR,20,6,'Very poor',Laptop/Desktop,6,1,8,0,Linkedin,0,3,Decreased,NO,'Online surfing',YES,nothing,NO
Delhi-NCR,21,3,Average,Laptop/Desktop,3,0,9,2,Linkedin,1,8,Increased,NO,'Watching web series',YES,'Roaming around freely',YES
Delhi-NCR,19,1,Average,Laptop/Desktop,3,0,10,4,Instagram,1,3,Decreased,NO,'Online surfing',NO,'Roaming around freely',NO
Delhi-NCR,22,0,Average,Laptop/Desktop,6,1,6,1,Youtube,5,3,'Remain Constant',NO,'Online gaming',YES,Gym,YES
'Outside Delhi-NCR',20,3,Poor,Laptop/Desktop,5,1,7,1,Whatsapp,1,3,Increased,YES,'Watching web series',NO,'Roaming around freely',NO
'Outside Delhi-NCR',19,1,Average,Laptop/Desktop,2,1,7,3,Instagram,1,3,'Remain Constant',NO,'Reading books',YES,'Friends , relatives',NO
Delhi-NCR,22,2,Good,Laptop/Desktop,10,1,6,1,Whatsapp,1,6,Increased,NO,'Listening to music',YES,Travelling,YES
Delhi-NCR,19,2,'Very poor',Laptop/Desktop,1,2,5,4,Instagram,0,2,Decreased,NO,'Listening to music',YES,'Friends , relatives',YES
Delhi-NCR,18,3,Average,Smartphone,1,1,9,4,Instagram,3,4,'Remain Constant',NO,'Listening to music',YES,'Friends , relatives',YES
Delhi-NCR,20,2,Average,Laptop/Desktop,2,1,9,1,Youtube,0,3,'Remain Constant',NO,'Listening to music',NO,'Roaming around freely',YES
Delhi-NCR,19,2,'Very poor',Laptop/Desktop,2,0,12,2,Whatsapp,1,2,Decreased,NO,'Listening to music',YES,School/college,YES
Delhi-NCR,23,2,Average,Smartphone,5,1,12,1,Linkedin,1,3,'Remain Constant',YES,'Listening to music',NO,School/college,YES
Delhi-NCR,19,0,Average,Smartphone,1,0,8,4,Youtube,2,3,Increased,NO,'Online gaming',YES,'Roaming around freely',NO
Delhi-NCR,18,0,NA,NA,1,1,10,9,Instagram,5,3,'Remain Constant',NO,'Listening to music',YES,Travelling,YES
'Outside Delhi-NCR',19,2,Good,Laptop/Desktop,3,1,8,2,Youtube,0,3,'Remain Constant',YES,Reading,YES,School/college,YES
Delhi-NCR,17,7,'Very poor',Laptop/Desktop,3,2,6,2,Instagram,1,4,'Remain Constant',NO,Sleeping,NO,'Eating outside',YES
Delhi-NCR,18,7,Average,Laptop/Desktop,2,1,8,3,Whatsapp,0,3,Decreased,NO,'Watching web series',YES,'Friends , relatives',YES
Delhi-NCR,22,2,Good,'Any Gadget',1.5,1,7,1,Youtube,5,3,Increased,NO,'Web Series',NO,Travelling,NO
Delhi-NCR,21,4,Average,Laptop/Desktop,4,0,7,2,Whatsapp,0,3,Increased,NO,'Watching web series',YES,'Friends , relatives',YES
Delhi-NCR,17,3,Average,Laptop/Desktop,2,0,6,2,Instagram,1,3,Increased,NO,'Online gaming',YES,'Friends , relatives',NO
Delhi-NCR,19,0,Good,Tablet,0.5,1,6,2,Instagram,0,4,Increased,NO,'Web Series',YES,School/college,NO
Delhi-NCR,20,5,'Very poor',Smartphone,2,2,6,3,Youtube,5,2,Decreased,NO,'Reading books',NO,'Roaming around freely',NO
Delhi-NCR,17,4,'Very poor',Smartphone,1,0,6,2,Instagram,1,3,Increased,NO,'Listening to music',NO,'Friends , relatives',NO
Delhi-NCR,21,3,'Very poor',Laptop/Desktop,3,1,8,3,Instagram,5,2,Increased,NO,'Listening to music',NO,'Friends , relatives',NO
Delhi-NCR,19,2,Average,Smartphone,2,0,9,5,Instagram,0,2,'Remain Constant',NO,Sleeping,NO,School/college,NO
Delhi-NCR,20,1.5,'Very poor',Smartphone,2.5,2,9,1,Youtube,7,2,Decreased,YES,'Listening to music',YES,Travelling,NO
Delhi-NCR,21,3,'Very poor',Laptop/Desktop,3,0,9,4,Snapchat,20,4,Increased,NO,Sleeping,NO,School/college,NO
'Outside Delhi-NCR',19,2,Average,Laptop/Desktop,4,1,6,3,Instagram,0,4,Increased,NO,'Scrolling through social media',YES,'Friends , relatives',NO
Delhi-NCR,38,4,Excellent,Laptop/Desktop,5,1,6,1,Youtube,5,3,Increased,NO,'Online gaming',YES,'Roaming around freely',YES
Delhi-NCR,19,3,Average,Smartphone,7,1,6,1,Linkedin,0,4,Increased,NO,'Talking to your relatives',YES,School/college,YES
Delhi-NCR,17,2,Average,Laptop/Desktop,0,0,11,1.5,Instagram,5,4,'Remain Constant',NO,'Talking to your relatives',YES,'Eating outside',NO
'Outside Delhi-NCR',18,3,Good,Laptop/Desktop,3,0,10,2,Instagram,1,2,Increased,NO,'Listening to music',YES,Colleagues,NO
Delhi-NCR,20,5,'Very poor',Laptop/Desktop,2,3,10,1,Youtube,3,2,Decreased,YES,'Writing my own Comics & novels',YES,Playing,YES
Delhi-NCR,20,2,'Very poor',Smartphone,6,1,5,4,Youtube,3,1,Increased,YES,'Listening to music',YES,Travelling,YES
Delhi-NCR,23,0,Average,Laptop/Desktop,1,1,9,3,Linkedin,1,3,Increased,NO,'Listening to music',YES,Travelling,YES
'Outside Delhi-NCR',29,2,Average,Laptop/Desktop,2,1,8,0,Youtube,1,2,'Remain Constant',NO,'Reading books',YES,nothing,NO
Delhi-NCR,20,0,'Very poor',Laptop/Desktop,6,0,9,1,Whatsapp,0,3,Increased,NO,Sleeping,NO,Travelling,NO
'Outside Delhi-NCR',22,1,'Very poor',Smartphone,4,0.25,10,1,Linkedin,1,3,'Remain Constant',NO,Sleeping,YES,.,NO
Delhi-NCR,18,2,Average,Laptop/Desktop,3,1,8,2,Youtube,2,3,Increased,NO,'Online surfing',YES,School/college,YES
Delhi-NCR,15,4,Good,Smartphone,4,1,4,3,Youtube,5,3,'Remain Constant',NO,Sleeping,YES,Colleagues,YES
Delhi-NCR,19,4,Average,Smartphone,5,1,8,2,Youtube,0,3,'Remain Constant',NO,Meditation,YES,Travelling,YES
Delhi-NCR,20,2,'Very poor',Smartphone,2,0,9,10,Youtube,0,2,Decreased,NO,'Online gaming',YES,Nothing,YES
'Outside Delhi-NCR',21,1,'Very poor',Smartphone,4,1,9,1,Whatsapp,0,3,'Remain Constant',NO,'Watching web series',NO,'Eating outside',YES
'Outside Delhi-NCR',21,4,Average,Laptop/Desktop,3,0,8,2,Youtube,0,3,Decreased,NO,'Online gaming',YES,'Roaming around freely',YES
Delhi-NCR,20,4,'Very poor',Smartphone,1,1,10,2,Instagram,0,3,Increased,YES,Dancing,YES,'Eating outside',NO
Delhi-NCR,20,2,Average,Smartphone,1,2,8,4,Facebook,5,4,Decreased,NO,'Reading books',YES,Travelling,NO
'Outside Delhi-NCR',19,0,'Very poor',Smartphone,2,1,7,4,Instagram,1,2,'Remain Constant',NO,Meditation,YES,Travelling,NO
'Outside Delhi-NCR',28,3,Good,Laptop/Desktop,1,0,10,1,Whatsapp,1,2,Increased,NO,'Online gaming',YES,'Eating outside',NO
Delhi-NCR,19,6,Good,Laptop/Desktop,6,0,8,2,Youtube,3,2,Increased,NO,'Listening to music',NO,Travelling,YES
Delhi-NCR,21,2,Average,Smartphone,2,1,8,1,Youtube,1,3,'Remain Constant',NO,Sleeping,NO,'Friends , relatives',NO
Delhi-NCR,23,0,Good,Laptop/Desktop,3,0,10,4,Youtube,0,3,Increased,NO,'Online gaming',YES,'Eating outside',NO
Delhi-NCR,20,3,Good,Laptop/Desktop,2,1,7,5,Whatsapp,5,3,'Remain Constant',NO,Reading,YES,School/college,NO
Delhi-NCR,22,4,Good,Laptop/Desktop,2,1,12,2,Instagram,5,3,'Remain Constant',NO,Talking,YES,School/college,NO
Delhi-NCR,20,2,Average,Smartphone,4,1,8,2,Youtube,1,3,Increased,NO,'Listening to music',YES,School/college,YES
'Outside Delhi-NCR',22,0,NA,NA,0,1,5,4,Instagram,1,2,Decreased,NO,'Watching web series',YES,Travelling,NO
'Outside Delhi-NCR',20,5,Good,Laptop/Desktop,4,1,7,3,Youtube,0,3,Increased,NO,Reading,YES,Travelling,YES
'Outside Delhi-NCR',23,3,Good,Laptop/Desktop,2,1,6,1,Whatsapp,1,2,'Remain Constant',NO,Reading,YES,'Eating outside',YES
'Outside Delhi-NCR',21,2,'Very poor',Smartphone,2,1,8,4,Whatsapp,0,4,Increased,NO,'Scrolling through social media',YES,Travelling,NO
Delhi-NCR,19,3,'Very poor',Smartphone,2,1,9,5,Instagram,0,3,'Remain Constant',NO,'Listening to music',NO,'Friends , relatives',NO
'Outside Delhi-NCR',23,3,Good,Laptop/Desktop,5,0,6,1,Youtube,1,2,'Remain Constant',NO,'Web Series',YES,School/college,NO
'Outside Delhi-NCR',20,4,Average,Smartphone,2,0,8,2,Whatsapp,9,3,'Remain Constant',NO,Sleeping,YES,'Friends , relatives',YES
'Outside Delhi-NCR',22,2,Good,Laptop/Desktop,2,1,8,2,Whatsapp,1,4,Increased,NO,'Web Series',YES,Travelling,YES
Delhi-NCR,19,2,Poor,Smartphone,2,2,8,3,Youtube,1,4,Decreased,YES,Gym,NO,'Roaming around freely',YES
'Outside Delhi-NCR',21,5,'Very poor',Smartphone,4,1,7,1,Youtube,1,3,'Remain Constant',NO,Meditation,YES,'Friends , relatives',YES
'Outside Delhi-NCR',20,0,'Very poor',Smartphone,5,0,8,1,Youtube,?,3,Decreased,YES,'I have no problem of stress ',YES,'I have missed nothing ',NO
'Outside Delhi-NCR',21,1,'Very poor',Laptop/Desktop,5,1,11,2,Instagram,1,3,Increased,NO,workout,YES,'Eating outside',NO
Delhi-NCR,22,5,Good,Laptop/Desktop,3,0,7,2,Whatsapp,1,3,'Remain Constant',NO,Sleeping,YES,Travelling,YES
Delhi-NCR,18,4,Good,Smartphone,2,0.5,6,2,Whatsapp,1,4,'Remain Constant',NO,'Online gaming',NO,School/college,YES
Delhi-NCR,21,1,Good,Laptop/Desktop,1,2,7,2,Youtube,1,3,'Remain Constant',NO,'Listening to music',YES,Colleagues,YES
'Outside Delhi-NCR',22,2,Average,Laptop/Desktop,5,0.3,8,1,Linkedin,0,3,Increased,YES,'Listening to music',NO,'Roaming around freely',NO
'Outside Delhi-NCR',20,4,Average,Laptop/Desktop,3,1,9,3,Instagram,0,2,Increased,NO,Meditation,YES,'Friends , relatives',NO
Delhi-NCR,19,6,'Very poor',Smartphone,4,2,6,2,Instagram,1,4,Decreased,YES,'Online gaming',YES,'Friends , relatives',YES
Delhi-NCR,21,0.5,'Very poor',Smartphone,2,1,9,1,Youtube,1,3,Increased,NO,'Reading books',YES,Travelling,NO
Delhi-NCR,21,1,'Very poor',Laptop/Desktop,0,0,9,3,Whatsapp,1,3,'Remain Constant',NO,'Watching web series',NO,School/college,NO
Delhi-NCR,19,4,'Very poor',Smartphone,2,1,9,7,Instagram,2,3,Increased,NO,Sleeping,YES,School/college,NO
'Outside Delhi-NCR',21,2,'Very poor',Smartphone,2,0,8,1,Twitter,1,3,Increased,YES,'Reading books',YES,School/college,NO
'Outside Delhi-NCR',23,5.5,Excellent,Laptop/Desktop,3,1,8,1,Whatsapp,1,2,Decreased,NO,'Watching web series',YES,School/college,YES
Delhi-NCR,21,0,'Very poor',Smartphone,0,0,9,4,Youtube,1,4,Increased,NO,'Watching web series',NO,'Eating outside',NO
Delhi-NCR,40,6,Average,Laptop/Desktop,3,0,7,2,Whatsapp,5,3,'Remain Constant',NO,'No able to reduce the stress ',YES,Travelling,NO
Delhi-NCR,20,4,Good,Laptop/Desktop,1,0,9,2,Instagram,1,3,Increased,NO,'Social Media',YES,School/college,NO
'Outside Delhi-NCR',40,5,Excellent,Laptop/Desktop,4,0.5,6,1,Whatsapp,5,2,'Remain Constant',NO,'Talking to your relatives',YES,Travelling,YES
Delhi-NCR,19,3,Average,Smartphone,1,1,6,2,Instagram,1,3,Decreased,NO,'Watching web series',YES,School/college,YES
'Outside Delhi-NCR',18,2,'Very poor',Laptop/Desktop,4,0,8,1.5,Instagram,1,2,'Remain Constant',NO,'Watching web series',NO,School/college,NO
Delhi-NCR,23,3,Average,Laptop/Desktop,2,1,6,3,Twitter,5,4,'Remain Constant',NO,'Listening to music',YES,'Friends , relatives',YES
'Outside Delhi-NCR',21,7,Average,Laptop/Desktop,8,0,6,1,Linkedin,0,4,Increased,NO,'Listening to music',YES,'Friends , relatives',NO
'Outside Delhi-NCR',12,5,Average,Smartphone,2,1,7,0,None,0,4,'Remain Constant',NO,Cooking,YES,'Friends , relatives',YES
'Outside Delhi-NCR',20,0.5,'Very poor',Smartphone,1,1,8,0.5,Whatsapp,21,3,'Remain Constant',NO,'Sleeping, Online games',YES,All,NO
Delhi-NCR,22,0,NA,NA,2,1,8,2,Instagram,5,3,'Remain Constant',NO,Dancing,YES,School/college,YES
'Outside Delhi-NCR',30,4,Average,Laptop/Desktop,3,1,7.8,4,Whatsapp,5,3,Increased,NO,'Watching web series',NO,'Roaming around freely',NO
'Outside Delhi-NCR',21,5,Average,Laptop/Desktop,1,1,8,2,Instagram,5,4,'Remain Constant',NO,'Watching web series',YES,'Friends , relatives',YES
Delhi-NCR,20,1,'Very poor',Laptop/Desktop,0,0,8,4,Whatsapp,1,4,Increased,NO,'Listening to music',YES,'Friends , relatives',NO
Delhi-NCR,22,3,Average,Laptop/Desktop,5,0,8,2,Instagram,1,2,'Remain Constant',YES,'Listening to music',YES,'Friends , relatives',YES
Delhi-NCR,40,1,Excellent,Laptop/Desktop,2,1,6.7,1,Whatsapp,0,2,'Remain Constant',NO,'Online surfing',YES,'Friends , relatives',YES
'Outside Delhi-NCR',24,5,Excellent,Laptop/Desktop,3,3,8,2,Whatsapp,5,3,'Remain Constant',NO,'By engaging in my work.',YES,ALL,YES
'Outside Delhi-NCR',18,4,'Very poor',Smartphone,1,2,9,2,Whatsapp,3,2,Decreased,NO,'Listening to music',YES,'Roaming around freely',NO
'Outside Delhi-NCR',22,1,'Very poor',Smartphone,2,1,5,10,Instagram,1,2,Decreased,NO,'Watching web series',NO,'Roaming around freely',NO
'Outside Delhi-NCR',20,7,Poor,Smartphone,2,0,8,3,Instagram,1,2,'Remain Constant',YES,'Scrolling through social media',YES,'Travelling & Friends',NO
Delhi-NCR,35,3,Good,Laptop/Desktop,3,1,7,1,Whatsapp,0,3,'Remain Constant',NO,Sleeping,NO,School/college,NO
Delhi-NCR,40,2,Poor,Smartphone,3,0,5,1,Whatsapp,0,4,Increased,NO,'Watching web series',YES,School/college,NO
'Outside Delhi-NCR',18,0,Poor,Laptop/Desktop,2,2,7,4,Instagram,0,3,'Remain Constant',NO,'Online gaming',YES,School/college,YES
'Outside Delhi-NCR',19,4,'Very poor',Smartphone,0,0,7,1,Youtube,1,2,Increased,NO,'Listening to music',NO,'Eating outside',NO
Delhi-NCR,35,4,Average,Laptop/Desktop,4,2,10,2,Facebook,0,3,'Remain Constant',NO,'Online gaming',YES,'Roaming around freely',YES
Delhi-NCR,16,5,'Very poor',Laptop/Desktop,4,0.5,8,0.5,Youtube,1,3,Increased,NO,'Reading books',NO,'Eating outside',NO
'Outside Delhi-NCR',30,1,Good,Smartphone,1,1,7,1,Whatsapp,1,4,'Remain Constant',NO,Dancing,YES,School/college,NO
Delhi-NCR,23,5,Excellent,Laptop/Desktop,2,1,8,1,Whatsapp,9,3,'Remain Constant',YES,Meditation,YES,'Friends , relatives',YES
'Outside Delhi-NCR',19,2,Average,Laptop/Desktop,5,0,9,2,Instagram,3,3,Increased,YES,'Talking to your relatives',YES,'Friends , relatives',NO
'Outside Delhi-NCR',19,4,'Very poor',Smartphone,2,1,8,2,Youtube,0,3,'Remain Constant',NO,'Listening to music',YES,School/college,NO
'Outside Delhi-NCR',37,4,Good,Laptop/Desktop,5,1,7,4,Instagram,1,2,Increased,NO,Talking,YES,Travelling,YES
Delhi-NCR,21,3,'Very poor',Laptop/Desktop,2,0,7,1,Instagram,1,2,Increased,NO,'Scrolling through social media',NO,School/college,NO
'Outside Delhi-NCR',20,3,'Very poor',Laptop/Desktop,4,0,9,2,Youtube,0,4,Increased,NO,'Scrolling through social media',NO,'Friends , relatives',YES
Delhi-NCR,24,0,Average,Smartphone,1,1,8,1,Linkedin,1,3,'Remain Constant',NO,Work,NO,'Roaming around freely',YES
Delhi-NCR,40,0,Average,Laptop/Desktop,0,1,10,2,Whatsapp,0,3,Increased,NO,'Watching web series',YES,'Friends , relatives',NO
'Outside Delhi-NCR',20,2,'Very poor',Smartphone,1,0.5,8,2,Youtube,11,3,'Remain Constant',NO,'Listening to music',YES,'Roaming around freely',NO
'Outside Delhi-NCR',23,3,Poor,Smartphone,4,0,9,3,Facebook,1,2,Increased,NO,'Watching web series',YES,'Friends , relatives',NO
Delhi-NCR,26,3,'Very poor',Laptop/Desktop,2,1,8,1,Youtube,1,4,Increased,NO,'Listening to music',YES,'Roaming around freely',YES
'Outside Delhi-NCR',20,5,Good,Smartphone,3,0,7,2,Youtube,5,4,'Remain Constant',NO,'Online gaming',YES,Travelling,NO
'Outside Delhi-NCR',22,0,'Very poor',Smartphone,4,1,8,0,None,1,4,'Remain Constant',YES,'Painting,. Sewing',NO,Travelling,NO
'Outside Delhi-NCR',14,5,Good,Laptop/Desktop,4,0,8,2,Facebook,5,3,Increased,NO,Sleeping,YES,School/college,NO
'Outside Delhi-NCR',20,0,'Very poor',Smartphone,1,0,10,4,Youtube,0,3,Increased,NO,'Online gaming',YES,Travelling,NO
'Outside Delhi-NCR',22,0,Average,Smartphone,0,0,10,5,Facebook,9,2,'Remain Constant',NO,Drawing,YES,School/college,NO
'Outside Delhi-NCR',40,5,Average,Smartphone,2,1,8,4,Whatsapp,15,3,'Remain Constant',NO,'Scrolling through social media',YES,'Roaming around freely',YES
'Outside Delhi-NCR',23,1,Poor,Smartphone,2,1,8,2,Instagram,5,2,Increased,YES,Meditation,YES,School/college,NO
'Outside Delhi-NCR',21,3,'Very poor',Smartphone,2,2,7,3,Whatsapp,2,2,'Remain Constant',NO,'Listening to music',YES,'Friends , relatives',YES
'Outside Delhi-NCR',21,5,Average,Smartphone,5,0,5,2,Instagram,0,2,'Remain Constant',NO,'Listening to music',NO,'To stay alone. ',YES
Delhi-NCR,34,2,Average,Smartphone,1,1,7,4,Whatsapp,5,3,Increased,NO,'Scrolling through social media',YES,Travelling,YES
'Outside Delhi-NCR',40,1,Average,Smartphone,1,1,8,3,Facebook,5,2,Decreased,NO,'Forming ',YES,School/college,NO
'Outside Delhi-NCR',22,3,Good,Smartphone,2,1,8,2,Youtube,0,2,'Remain Constant',NO,'Online gaming',NO,Colleagues,YES
'Outside Delhi-NCR',21,2,'Very poor',Smartphone,0,2,8,4,Instagram,5,2,'Remain Constant',NO,Cooking,NO,Travelling,NO
'Outside Delhi-NCR',18,2,Poor,Smartphone,1,1,8.5,2,Whatsapp,2,3,'Remain Constant',NO,'Listening to music',NO,School/college,NO
'Outside Delhi-NCR',22,2,Average,Laptop/Desktop,7,1,9,2,Instagram,1,2,Decreased,NO,'Scrolling through social media',NO,'Roaming around freely',NO
'Outside Delhi-NCR',21,0,'Very poor',Smartphone,2,3,9,1,Whatsapp,0,1,Decreased,YES,'Online surfing',NO,'Roaming around freely',NO
'Outside Delhi-NCR',22,3,'Very poor',Laptop/Desktop,5,1,8,3,Facebook,0,4,'Remain Constant',NO,'Scrolling through social media',YES,'Friends , relatives',YES
'Outside Delhi-NCR',21,2,Good,Laptop/Desktop,2,2,7,0.5,Whatsapp,1,4,'Remain Constant',NO,Reading,YES,Colleagues,YES
'Outside Delhi-NCR',21,3,'Very poor',Laptop/Desktop,12,0,6,1,Linkedin,1,2,Decreased,YES,'Scrolling through social media',NO,School/college,NO
Delhi-NCR,21,2,'Very poor',Smartphone,3,0,8,2,Instagram,1,2,Increased,YES,'Listening to music',NO,School/college,NO
'Outside Delhi-NCR',20,4,'Very poor',Laptop/Desktop,4,0,11,3,Instagram,1,3,Increased,NO,'Watching web series',NO,'Eating outside',NO
Delhi-NCR,20,4,NA,NA,3,1,7,2,Whatsapp,5,4,'Remain Constant',NO,'Watching web series',YES,ALL,YES
Delhi-NCR,21,3,'Very poor',Laptop/Desktop,5,0,7,1,Youtube,1,4,'Remain Constant',NO,'Online gaming',NO,'Eating outside',YES
'Outside Delhi-NCR',20,4,Average,Laptop/Desktop,5,0.5,8,1,Whatsapp,5,3,Increased,NO,Meditation,YES,'Friends , relatives',YES
'Outside Delhi-NCR',21,4,Average,Laptop/Desktop,4,0,6,4,Whatsapp,1,3,'Remain Constant',NO,Meditation,YES,'Friends , relatives',YES
Delhi-NCR,21,3,'Very poor',Smartphone,8,1,8,1,Whatsapp,1,3,'Remain Constant',NO,Meditation,NO,'Friends , relatives',YES
Delhi-NCR,21,5,Average,Smartphone,6,0,5,2,Youtube,1,3,Increased,YES,'Online gaming',YES,'Eating outside',YES
'Outside Delhi-NCR',40,6,Excellent,Laptop/Desktop,2,1,6,2,Whatsapp,5,3,Decreased,NO,'Listening to music',NO,School/college,YES
Delhi-NCR,20,2,'Very poor',Smartphone,3,2,8,1,Youtube,0,3,Increased,NO,'Listening to music',NO,School/college,NO
Delhi-NCR,22,4,Good,Laptop/Desktop,2,1,8,5,Whatsapp,1,3,'Remain Constant',NO,'Social Media',YES,School/college,NO
Delhi-NCR,19,5,Average,Smartphone,6,1,6,0,Whatsapp,1,3,'Remain Constant',NO,'Online surfing',YES,School/college,YES
Delhi-NCR,22,3,Good,Smartphone,3,0,12,1,Youtube,9,2,'Remain Constant',NO,'Online gaming',NO,All,NO
Delhi-NCR,20,6,'Very poor',Laptop/Desktop,4,1,6,3,Whatsapp,3,3,'Remain Constant',NO,'Watching web series',YES,'Friends , relatives',YES
Delhi-NCR,36,4,Good,Laptop/Desktop,2,1,10,1,Youtube,0,3,Increased,NO,Sleeping,YES,Colleagues,YES
Delhi-NCR,23,4,Good,Laptop/Desktop,2,0.5,7,3,Youtube,0,3,'Remain Constant',NO,Talking,YES,Travelling,YES
'Outside Delhi-NCR',32,2,Average,Laptop/Desktop,3,0,9,2,None,3,3,Increased,NO,'Reading books',YES,School/college,NO
'Outside Delhi-NCR',24,2,Average,Smartphone,3,0.5,9,2,Twitter,1,2,'Remain Constant',NO,Sleeping,YES,Family,YES
'Outside Delhi-NCR',20,5,Average,Laptop/Desktop,4,1,8,2,Youtube,0,3,'Remain Constant',NO,'Listening to music',YES,'Roaming around freely',NO
Delhi-NCR,22,2,Excellent,Laptop/Desktop,3,1,8,2,Instagram,0,3,Decreased,NO,'Online surfing',YES,'Eating outside',YES
Delhi-NCR,20,5,'Very poor',Laptop/Desktop,1,0,8,1,Youtube,3,2,'Remain Constant',NO,'Listening to music',YES,'Friends , relatives',NO
Delhi-NCR,21,4,'Very poor',Laptop/Desktop,2,0,10,2,Whatsapp,1,3,Increased,NO,'Listening to music',NO,School/college,NO
'Outside Delhi-NCR',38,4,'Very poor',Laptop/Desktop,3,1,6,2,Youtube,5,3,'Remain Constant',NO,Sleeping,YES,Travelling,YES
Delhi-NCR,27,3,Good,Laptop/Desktop,2,1,8,2,Instagram,3,4,Decreased,YES,'Web Series',NO,Travelling,NO
'Outside Delhi-NCR',20,2,Average,Laptop/Desktop,2,0,7,2,Whatsapp,0,3,Increased,NO,'Scrolling through social media',YES,'Friends , relatives',NO
'Outside Delhi-NCR',21,2,'Very poor',Laptop/Desktop,12,1,9,5,Youtube,0,3,Increased,NO,'Online gaming',YES,'Friends , relatives',YES
Delhi-NCR,20,8,'Very poor',Laptop/Desktop,2,0,6,2,Linkedin,2,3,Decreased,NO,'Listening to music',YES,'Eating outside',NO
Delhi-NCR,20,4,Average,Smartphone,1,0,6,10,Talklife,5,1,'Remain Constant',NO,'Online surfing',NO,School/college,NO
Delhi-NCR,22,5,Average,Smartphone,4,1,6,2,Instagram,5,3,Increased,NO,'Listening to music',YES,School/college,YES
Delhi-NCR,21,3,'Very poor',Laptop/Desktop,2,1,8,0.75,Whatsapp,0,3,'Remain Constant',NO,'Listening to music',NO,'Badminton in court',NO
'Outside Delhi-NCR',21,3,'Very poor',Laptop/Desktop,1,0,8,1,Instagram,1,3,Increased,NO,'Listening to music',YES,'Roaming around freely',NO
Delhi-NCR,21,4,'Very poor',Smartphone,6,0,9,2,Youtube,1,2,'Remain Constant',NO,'Listening to music',YES,School/college,NO
Delhi-NCR,21,4,'Very poor',Smartphone,1,1,7,2,Instagram,1,4,Increased,NO,'Scrolling through social media',YES,'Eating outside',YES
Delhi-NCR,21,4,Average,Smartphone,2,2,12,2,Instagram,1,2,Decreased,NO,'Online surfing',YES,'Friends , relatives',NO
Delhi-NCR,20,5,Average,Smartphone,5,1,6,2,Instagram,0,3,Increased,NO,'Listening to music',YES,School/college,NO
Delhi-NCR,33,2,'Very poor',Laptop/Desktop,1,1,7,1,Youtube,1,3,'Remain Constant',YES,'Online surfing',YES,Travelling,NO
Delhi-NCR,20,4,'Very poor',Smartphone,5,1,10,3,Whatsapp,1,2,'Remain Constant',NO,'Listening to music',NO,School/college,NO
Delhi-NCR,21,3,Average,Smartphone,2,2,7,1,Whatsapp,2,2,'Remain Constant',NO,'Workout and listening music',YES,Travelling,YES
Delhi-NCR,20,6,Average,Laptop/Desktop,2,2,7,3,Whatsapp,0,4,Decreased,NO,Meditation,NO,'Friends , relatives',YES
Delhi-NCR,37,2,Good,Laptop/Desktop,1,1,7,0.5,Whatsapp,0,2,'Remain Constant',NO,'Listening to music',YES,Travelling,YES
Delhi-NCR,22,5,Average,Smartphone,3,0,8,3,Instagram,1,3,'Remain Constant',NO,'Both listining music and scrolling down social media',YES,School/college,NO
'Outside Delhi-NCR',33,4,Average,Laptop/Desktop,1,0,7,1,Whatsapp,8,4,Increased,NO,Cooking,YES,School/college,YES
'Outside Delhi-NCR',17,1,'Very poor',Smartphone,2,0,7,2,Snapchat,0,3,Increased,YES,Dancing,NO,'Friends , relatives',NO
'Outside Delhi-NCR',20,4,Average,Smartphone,5,1,7,0.5,Instagram,1,3,Decreased,NO,'Listening to music',YES,School/college,YES
Delhi-NCR,19,2,Average,Laptop/Desktop,2,1,9,2,Instagram,0,4,'Remain Constant',NO,'Listening to music',NO,'Friends , relatives',NO
'Outside Delhi-NCR',20,4,Average,Smartphone,3,1,7,1,Youtube,0,2,Increased,NO,Meditation,YES,Travelling,YES
'Outside Delhi-NCR',21,3,'Very poor',Smartphone,4,1,5,2,Youtube,1,3,'Remain Constant',NO,Sleeping,YES,School/college,YES
Delhi-NCR,17,7,'Very poor',Smartphone,2,1,6,3,Youtube,0,3,Increased,NO,'Watching web series',YES,Travelling,NO
'Outside Delhi-NCR',20,3,Poor,Smartphone,2,0,7,3,Youtube,0,2,Decreased,YES,'Watching web series',YES,'Friends, relatives & travelling',NO
'Outside Delhi-NCR',20,7,'Very poor',Laptop/Desktop,4,0,7,2,Instagram,0,3,'Remain Constant',NO,'Online gaming',YES,Travelling,YES
'Outside Delhi-NCR',19,10,Average,Laptop/Desktop,3,1,5,1,Instagram,3,4,'Remain Constant',NO,'Reading books',NO,'Friends , relatives',NO
'Outside Delhi-NCR',21,5,Average,Laptop/Desktop,2,0,9,1,Instagram,5,3,'Remain Constant',NO,'Listening to music',NO,ALL,NO
'Outside Delhi-NCR',20,8,Average,Laptop/Desktop,5,1,5,3,Instagram,3,3,'Remain Constant',NO,'Listening to music',YES,'Roaming around freely',NO
'Outside Delhi-NCR',36,5,Good,Laptop/Desktop,4,1,5,1,Whatsapp,0,2,'Remain Constant',NO,Reading,YES,Travelling,YES
'Outside Delhi-NCR',20,4,'Very poor',Smartphone,4,0,8,1,Instagram,1,3,'Remain Constant',NO,Meditation,NO,'Eating outside',NO
'Outside Delhi-NCR',31,4,Good,Laptop/Desktop,3,2,9,2,Linkedin,1,2,Decreased,NO,Talking,YES,Travelling,YES
Delhi-NCR,22,6,'Very poor',Laptop/Desktop,4,0,8,2,Whatsapp,3,4,Increased,NO,Sleeping,NO,School/college,NO
Delhi-NCR,22,5,Average,Smartphone,4,1,8,2,Youtube,0,2,Decreased,NO,'Listening to music',YES,Travelling,YES
Delhi-NCR,28,3,Good,Laptop/Desktop,2,1,8,4,Instagram,0,3,'Remain Constant',NO,Reading,YES,Travelling,YES
'Outside Delhi-NCR',16,5,'Very poor',Smartphone,1,0,10,3,Whatsapp,1,2,Decreased,NO,'Scrolling through social media',NO,'Friends , relatives',NO
Delhi-NCR,20,2,Average,Smartphone,3,0,12,7,Instagram,7,4,Decreased,YES,'Scrolling through social media',NO,School/college,NO
'Outside Delhi-NCR',21,2,'Very poor',Smartphone,4,0,8,1,Whatsapp,5,3,Increased,YES,'Listening to music',NO,'Roaming around freely',NO
Delhi-NCR,19,4,Average,Laptop/Desktop,3,2,7,4,Instagram,1,3,Decreased,NO,'Online gaming',YES,Travelling,NO
Delhi-NCR,20,6,Average,Laptop/Desktop,2,1,8,2,Instagram,0,3,'Remain Constant',NO,Sleeping,YES,'Roaming around freely',YES
'Outside Delhi-NCR',14,2,Good,Smartphone,2,1,8,3,Whatsapp,0,3,Increased,NO,Sleeping,YES,School/college,NO
'Outside Delhi-NCR',26,1,Average,Smartphone,3,1,8,4,Youtube,1,3,Decreased,YES,'Watching web series',YES,'Roaming around freely',NO
Delhi-NCR,21,3,'Very poor',Laptop/Desktop,2,0,8,6,Instagram,11,4,Increased,NO,'Listening to music',YES,'Roaming around freely',NO
'Outside Delhi-NCR',34,1,Good,Smartphone,3,0.5,7,0,None,0,1,'Remain Constant',NO,'Listening to music',NO,Colleagues,NO
Delhi-NCR,19,5,'Very poor',Smartphone,2,0,6,3,Instagram,1,1,Increased,NO,'Online gaming',YES,Travelling,NO
Delhi-NCR,19,8,'Very poor',Laptop/Desktop,2,1,6,2,Whatsapp,1,3,'Remain Constant',NO,Sleeping,NO,'Roaming around freely',NO
'Outside Delhi-NCR',21,7,Good,'Any Gadget',7,0,10,3,Whatsapp,1,3,'Remain Constant',NO,Sleeping,YES,School/college,YES
'Outside Delhi-NCR',23,4,'Very poor',Laptop/Desktop,1,0,7,8,Facebook,5,3,Decreased,NO,'Online surfing',YES,Travelling,NO
Delhi-NCR,19,5,'Very poor',Smartphone,2,0,7,3,Instagram,1,3,Increased,NO,'Scrolling through social media',YES,'Eating outside',YES
Delhi-NCR,27,1,Average,Laptop/Desktop,2,0,8,3,Instagram,5,3,Increased,NO,Cooking,YES,Travelling,YES
'Outside Delhi-NCR',33,3,Average,Smartphone,1,0,6,1,Whatsapp,9,2,Decreased,YES,Sleeping,YES,'Roaming around freely',NO
'Outside Delhi-NCR',21,5,Average,Smartphone,3,1,11,3,Youtube,5,3,'Remain Constant',NO,Cooking,NO,School/college,NO
'Outside Delhi-NCR',21,2,'Very poor',Smartphone,3,0,8,4,Whatsapp,0,3,'Remain Constant',NO,'Watching web series',NO,All,NO
'Outside Delhi-NCR',24,0,'Very poor',Smartphone,1,0,5,4,Linkedin,15,3,Decreased,YES,'Scrolling through social media',YES,'Friends , relatives',NO
'Outside Delhi-NCR',23,0,Good,Laptop/Desktop,0,0,8,3,Youtube,1,1,'Remain Constant',NO,'Social Media',NO,Gym,NO
Delhi-NCR,20,5,Good,Laptop/Desktop,1,1,8,1,Instagram,0,4,Decreased,NO,'Listening to music',YES,Colleagues,YES
'Outside Delhi-NCR',29,10,Good,Laptop/Desktop,7,1,6,7,Whatsapp,5,2,'Remain Constant',NO,'Web Series',YES,'Eating outside',YES
'Outside Delhi-NCR',20,4,Average,Laptop/Desktop,1,1,10,5,Instagram,10,3,Decreased,NO,'Online surfing',YES,Travelling,YES
Delhi-NCR,21,1,Good,Smartphone,5,0,7,2,Linkedin,5,2,'Remain Constant',NO,Dancing,NO,School/college,NO
'Outside Delhi-NCR',21,6,Average,Laptop/Desktop,2,1,8,5,Instagram,5,2,Increased,NO,'Reading books',YES,'Roaming around freely',NO
Delhi-NCR,19,7,Average,Laptop/Desktop,1,1,5,6,Instagram,0,3,'Remain Constant',NO,Dancing,YES,'Friends , relatives',NO
Delhi-NCR,19,5,Average,Smartphone,6,2,5,4,Instagram,1,3,'Remain Constant',NO,'Scrolling through social media',YES,School/college,YES
Delhi-NCR,39,2,Excellent,Tablet,1,1,7,1,Whatsapp,3,3,'Remain Constant',NO,Cooking,YES,'Friends , relatives',NO
'Outside Delhi-NCR',20,3,Average,Smartphone,2,0,8,1,Facebook,0,3,'Remain Constant',NO,Meditation,YES,School/college,NO
Delhi-NCR,19,5,Average,Laptop/Desktop,2,0.5,8,2,Whatsapp,0,3,Increased,NO,'Listening to music',YES,'Roaming around freely',NO
'Outside Delhi-NCR',23,2,Average,Laptop/Desktop,6,2,7,4,Facebook,5,4,'Remain Constant',NO,'Online surfing',YES,'Roaming around freely',YES
'Outside Delhi-NCR',21,5,Average,Laptop/Desktop,2,0,10,2,Whatsapp,3,3,Increased,NO,'Listening to music',NO,School/college,YES
'Outside Delhi-NCR',10,5,Average,Laptop/Desktop,2,1,9,1.5,Whatsapp,0,4,Increased,NO,'Online gaming',YES,everything,YES
Delhi-NCR,14,5,Average,Tablet,1,1,9,1,Youtube,9,3,Increased,NO,'Online gaming',YES,'Friends , relatives',YES
'Outside Delhi-NCR',9,5,Excellent,'Smartphone or Laptop/Desktop',2,0.6,7,1,Whatsapp,1,4,'Remain Constant',NO,'Online gaming',YES,'Eating outside',YES
'Outside Delhi-NCR',22,4,Average,Laptop/Desktop,3,1,7,1,Twitter,5,3,Decreased,NO,'Online gaming',YES,'Roaming around freely',YES
'Outside Delhi-NCR',13,4,Good,Laptop/Desktop,2,0,10,3,Youtube,1,4,'Remain Constant',NO,'Online gaming',YES,Colleagues,NO
Delhi-NCR,23,2,'Very poor',Smartphone,2,1,6,3,Whatsapp,1,3,Increased,NO,'Listening to music',NO,School/college,NO
Delhi-NCR,13,5,'Very poor',Smartphone,1,0.6,7,4,Youtube,5,4,Decreased,NO,'Listening to music',YES,School/college,NO
'Outside Delhi-NCR',21,1,Good,Laptop/Desktop,3,1,10,3,Instagram,0,3,Increased,NO,'Social Media',YES,School/college,YES
'Outside Delhi-NCR',34,3,Average,Smartphone,6,0,6,1,Whatsapp,0,3,'Remain Constant',NO,'Listening to music',YES,School/college,YES
Delhi-NCR,14,9,Good,Smartphone,2,1,9,1,Instagram,1,2,'Remain Constant',NO,'Online gaming',YES,Colleagues,YES
Delhi-NCR,32,2,Average,Smartphone,2,1,6,1,Youtube,1,1,'Remain Constant',NO,'Listening to music',YES,Travelling,YES
'Outside Delhi-NCR',21,3,Average,Smartphone,2,1,8,6,Whatsapp,2,2,'Remain Constant',NO,Painting,YES,School/college,NO
Delhi-NCR,19,3,Excellent,Smartphone,0,1,6,4,Facebook,0,3,'Remain Constant',NO,'Listening to music',NO,School/college,YES
'Outside Delhi-NCR',14,5,Average,Tablet,3,1,6,4,Youtube,1,2,Increased,YES,'Listening to music',YES,Travelling,YES
Delhi-NCR,22,1,Average,Smartphone,1,0,9,3,Instagram,1,3,Increased,NO,'Listening to music',YES,'Eating outside',YES
'Outside Delhi-NCR',26,9,'Very poor',Laptop/Desktop,2,0,5,3,Linkedin,0,3,Increased,NO,'Reading books',YES,School/college,YES
'Outside Delhi-NCR',21,2,'Very poor',Smartphone,2,0,7,1,Youtube,0,3,'Remain Constant',YES,'Listening to music',YES,School/college,NO
Delhi-NCR,22,1,'Very poor',Laptop/Desktop,6,0,6,2,Whatsapp,1,2,Increased,YES,'Watching web series',YES,Travelling,YES
'Outside Delhi-NCR',21,2,Average,Laptop/Desktop,3,1,8,6,Instagram,5,3,'Remain Constant',NO,Dancing,YES,Travelling,YES
'Outside Delhi-NCR',40,5,Excellent,Laptop/Desktop,4,1,7,6,Linkedin,5,3,'Remain Constant',NO,'Listening to music',YES,School/college,YES
'Outside Delhi-NCR',15,2,Good,Laptop/Desktop,2,0,11,5,Youtube,1,3,'Remain Constant',NO,'Web Series',YES,Nothing,NO
Delhi-NCR,16,3,Average,Smartphone,3,0,10,5,Instagram,2,4,'Remain Constant',NO,'Listening to music',YES,'Eating outside',NO
'Outside Delhi-NCR',20,4,'Very poor',Smartphone,3,1,8,5,Youtube,5,4,Increased,NO,'Reading books',YES,'Roaming around freely',YES
'Outside Delhi-NCR',22,2,'Very poor',Laptop/Desktop,1,0,8,4,Whatsapp,1,2,'Remain Constant',NO,'Online gaming',YES,'Friends , relatives',NO
'Outside Delhi-NCR',22,4,Average,Laptop/Desktop,6,0,8,5,Instagram,0,3,Increased,NO,'Listening to music',YES,'Eating outside',NO
Delhi-NCR,23,2,Good,Smartphone,7,0,7,4,Instagram,0,4,Increased,NO,Dancing,YES,Travelling,NO
Delhi-NCR,21,4,Good,Laptop/Desktop,10,1,7,3,Whatsapp,1,3,'Remain Constant',YES,'Listening to music',YES,Travelling,NO
'Outside Delhi-NCR',17,3,Average,Smartphone,2,1,8,5,Whatsapp,22,1,'Remain Constant',NO,'Watching web series',YES,School/college,YES
Delhi-NCR,24,0,Average,Laptop/Desktop,10,1,8,1,Whatsapp,1,3,Increased,NO,'Talking to your relatives',YES,School/college,YES
Delhi-NCR,19,1,Average,Smartphone,0,0,8,6,Instagram,5,2,Decreased,YES,'Online gaming',NO,'Eating outside',NO
Delhi-NCR,23,10,Average,Laptop/Desktop,1,0,8,8,Youtube,0,3,Decreased,NO,'Watching web series',YES,Travelling,YES
Delhi-NCR,21,6,Average,Smartphone,2,1,7,3,Whatsapp,0,3,Decreased,NO,'Reading books',YES,'Friends , relatives',YES
Delhi-NCR,14,6,Good,Tablet,2,0,8.3,1,Youtube,21,3,Increased,NO,'Online gaming',YES,All,NO
'Outside Delhi-NCR',14,3,Good,Smartphone,1,0,8,3,Youtube,0,4,'Remain Constant',NO,'Web Series',YES,Colleagues,NO
Delhi-NCR,23,2,Average,Laptop/Desktop,6,1,7,2,Linkedin,0,3,Increased,NO,'Online gaming',YES,School/college,NO
Delhi-NCR,21,0,NA,NA,1,1,11,8,Instagram,2,3,Increased,NO,'Listening to music',YES,Travelling,NO
'Outside Delhi-NCR',33,2,Average,Smartphone,1,0,6,1,Whatsapp,3,2,'Remain Constant',NO,Meditation,YES,Travelling,NO
Delhi-NCR,11,4,Good,Smartphone,2,0,9,1,Whatsapp,1,3,'Remain Constant',NO,Sleeping,YES,School/college,YES
Delhi-NCR,20,3,Good,Laptop/Desktop,2,1,10,2,Instagram,1,4,Increased,NO,Sleeping,YES,Colleagues,YES
'Outside Delhi-NCR',23,2,Average,Smartphone,2,0.3,8,1,Whatsapp,8,3,Decreased,NO,Meditation,YES,'Friends , relatives',YES
Delhi-NCR,20,0,NA,NA,2,0,7,0.5,Twitter,5,2,'Remain Constant',NO,'Online surfing',YES,'Eating outside',NO
Delhi-NCR,18,0,Poor,Smartphone,0,2,12,1,Twitter,1,7,Increased,NO,'Online gaming',YES,'Roaming around freely',NO
Delhi-NCR,21,4,Average,Smartphone,8,0,6,1,Youtube,1,2,Decreased,YES,'Online surfing',NO,Travelling,NO
Delhi-NCR,38,2,'Very poor',Laptop/Desktop,4,0,7,3,Whatsapp,0,3,Increased,NO,'Scrolling through social media',NO,'Roaming around freely',NO
Delhi-NCR,20,5,Good,Laptop/Desktop,5,0,8,3,Youtube,1,2,'Remain Constant',NO,Reading,NO,Colleagues,YES
Delhi-NCR,21,0,NA,NA,6,1,9,2,Whatsapp,3,4,Increased,NO,'Scrolling through social media',YES,'Friends , relatives',YES
Delhi-NCR,11,2,Excellent,Smartphone,1,0,10,3,Youtube,5,3,Increased,NO,'Online gaming',YES,'Friends , relatives',YES
'Outside Delhi-NCR',22,0,Good,Laptop/Desktop,4,1,7,3,Instagram,1,3,Increased,NO,'Listening to music',YES,Travelling,NO
Delhi-NCR,23,0,NA,NA,2,2,10,6,Youtube,1,2,'Remain Constant',NO,'Listening to music',NO,School/college,YES
Delhi-NCR,21,8,'Very poor',Laptop/Desktop,1,1,9,2,Instagram,1,3,'Remain Constant',YES,'Scrolling through social media',NO,'Eating outside',NO
Delhi-NCR,26,0,'Very poor',Smartphone,0,0,12,2,Linkedin,5,2,'Remain Constant',YES,'Listening to music',NO,School/college,NO
'Outside Delhi-NCR',23,2,'Very poor',Laptop/Desktop,1,1,7.5,1,Whatsapp,5,3,'Remain Constant',NO,'Online gaming',YES,Travelling,YES
Delhi-NCR,19,3,Average,Smartphone,5,1,6,1,Youtube,1,2,'Remain Constant',NO,'Reading books',YES,'Friends , relatives',YES
Delhi-NCR,21,5,Average,Smartphone,3,1,8,4,Youtube,1,4,'Remain Constant',YES,Cooking,NO,School/college,NO
Delhi-NCR,20,4,'Very poor',Laptop/Desktop,3,0,9,2,Instagram,0,2,'Remain Constant',NO,'Scrolling through social media',NO,School/college,YES
'Outside Delhi-NCR',19,1,Good,Laptop/Desktop,2,0,8,1,Whatsapp,10,3,'Remain Constant',NO,Dancing,YES,School/college,NO
'Outside Delhi-NCR',20,4,'Very poor',Smartphone,2,0,10,1,Instagram,1,3,Decreased,NO,Sleeping,NO,'Roaming around freely',NO
Delhi-NCR,19,2,Average,Laptop/Desktop,3,0.5,8,2,Instagram,0,3,Increased,NO,'Watching web series',NO,School/college,NO
Delhi-NCR,17,4,Good,Laptop/Desktop,2,1,10,6,Whatsapp,9,4,Increased,NO,'Listening to music',YES,Colleagues,YES
Delhi-NCR,20,10,'Very poor',Laptop/Desktop,2,1,8,5,Instagram,1,3,'Remain Constant',NO,'Scrolling through social media',NO,Nothing,NO
'Outside Delhi-NCR',20,4,Good,Smartphone,2,1,8,2,Instagram,13,4,'Remain Constant',NO,Cooking,YES,School/college,YES
'Outside Delhi-NCR',27,4,Average,Smartphone,2,0,7,8,Youtube,9,3,Increased,NO,'Listening to music',YES,Travelling,NO
Delhi-NCR,18,7,'Very poor',Smartphone,4,0,9,2,Instagram,1,2,Decreased,NO,'Online surfing',YES,School/college,NO
'Outside Delhi-NCR',18,8,Good,Smartphone,2,0.25,7,1.5,Instagram,0,3,Increased,NO,Talking,NO,School/college,NO
'Outside Delhi-NCR',19,6,Average,Smartphone,4,1,6,5,Whatsapp,5,3,'Remain Constant',NO,'Online gaming',NO,School/college,NO
Delhi-NCR,18,5,'Very poor',Smartphone,0,0,7,1,Instagram,3,3,Decreased,NO,'Online gaming',NO,School/college,YES
'Outside Delhi-NCR',20,4,Good,Smartphone,2,1,8,2,Instagram,13,4,'Remain Constant',NO,Cooking,YES,School/college,YES
'Outside Delhi-NCR',19,6,'Very poor',Laptop/Desktop,2,0,8,2,Instagram,1,3,Increased,NO,'Listening to music',NO,'Roaming around freely',NO
Delhi-NCR,19,6,Average,Laptop/Desktop,5,1,7,3,Instagram,10,4,Increased,NO,'Watching web series',YES,School/college,YES
Delhi-NCR,18,8,'Very poor',Smartphone,0,1,6,5,Whatsapp,1,2,Decreased,NO,'Online gaming',YES,'Roaming around freely',NO
Delhi-NCR,18,4,'Very poor',Smartphone,0,1,8,2,Instagram,10,3,'Remain Constant',NO,Sketching,YES,'Friends , relatives',YES
Delhi-NCR,19,8,Good,Smartphone,2,2,8,5,Instagram,0,2,Decreased,YES,Dancing,YES,School/college,NO
Delhi-NCR,26,1,Average,Smartphone,1,0,8,3,Facebook,1,3,Increased,NO,'Listening to music',YES,School/college,NO
'Outside Delhi-NCR',18,8,Average,Smartphone,3,1,5,4,Youtube,5,2,Decreased,NO,'Listening to music',NO,School/college,NO
'Outside Delhi-NCR',19,2,Good,Smartphone,2,1,8,3,Whatsapp,5,1,Decreased,YES,'Listening to music',YES,School/college,NO
'Outside Delhi-NCR',18,5,Average,Smartphone,2,0,6,1,Instagram,1,3,'Remain Constant',NO,'Talking to your relatives',YES,School/college,NO
'Outside Delhi-NCR',21,2,Average,Laptop/Desktop,1,0,12,3,Instagram,1,2,Increased,NO,'Listening to music',YES,School/college,NO
'Outside Delhi-NCR',19,0,'Very poor',Laptop/Desktop,8,0,8,10,Instagram,1,3,'Remain Constant',YES,'Talking to your relatives',YES,'Friends , relatives',YES
'Outside Delhi-NCR',23,2,Average,Laptop/Desktop,2,2,7,5,Whatsapp,5,2,'Remain Constant',NO,'Scrolling through social media',YES,'Friends , relatives',NO
'Outside Delhi-NCR',22,4,Good,Laptop/Desktop,2,0,9,3,Instagram,0,2,Increased,NO,'Listening to music',YES,School/college,YES
Delhi-NCR,19,8,Average,Smartphone,4,0,6,1,Whatsapp,5,2,'Remain Constant',NO,Sleeping,YES,School/college,NO
'Outside Delhi-NCR',19,6,Good,Laptop/Desktop,2,0,8,10,Instagram,1,4,Increased,NO,'Social Media',YES,School/college,NO
Delhi-NCR,18,6,'Very poor',Smartphone,4,0,7,3,Instagram,10,4,Decreased,NO,'Online surfing',YES,School/college,YES
'Outside Delhi-NCR',12,0,Excellent,Smartphone,3,1,8,1,Whatsapp,5,2,Increased,NO,'Reading books',YES,School/college,YES
'Outside Delhi-NCR',18,5,Good,Smartphone,3,2,8,3,Youtube,1,3,'Remain Constant',NO,'Listening to music',YES,Travelling,NO
Delhi-NCR,19,4,'Very poor',Laptop/Desktop,3,0,8,2,Youtube,1,3,'Remain Constant',NO,'Listening to music',NO,'Roaming around freely',YES
Delhi-NCR,19,6,Average,Laptop/Desktop,2,2,6,3,Instagram,10,2,Increased,NO,'Listening to music',YES,School/college,NO
Delhi-NCR,20,3,'Very poor',Laptop/Desktop,2,0,7,3,Instagram,1,4,Decreased,YES,'Reading books',NO,School/college,NO
'Outside Delhi-NCR',26,4,'Very poor',Smartphone,2,0,7,2,Instagram,1,3,Increased,NO,'Listening to music',YES,Travelling,NO
'Outside Delhi-NCR',20,3,'Very poor',Laptop/Desktop,2,1,8,1,Whatsapp,0,4,Increased,NO,'Online gaming',YES,School/college,NO
'Outside Delhi-NCR',23,4,Good,Smartphone,2,1,7,3,Linkedin,0,3,'Remain Constant',YES,Cooking,YES,Colleagues,YES
Delhi-NCR,26,4,'Very poor',Smartphone,3,1,7,2,Youtube,0,3,'Remain Constant',NO,'Listening to music',NO,'Roaming around freely',NO
Delhi-NCR,19,4,Average,Laptop/Desktop,2,0.5,8,2,Whatsapp,0,2,'Remain Constant',NO,'Watching web series',NO,'Friends , relatives',NO
'Outside Delhi-NCR',22,0,Good,Laptop/Desktop,2,1,9,2,Instagram,5,2,'Remain Constant',NO,Sleeping,YES,School/college,YES
'Outside Delhi-NCR',23,3,Average,Smartphone,4,1,8,3,Whatsapp,5,3,'Remain Constant',NO,'Online surfing',NO,School/college,YES
Delhi-NCR,20,2,Good,Smartphone,3,1,6,2,Whatsapp,2,2,'Remain Constant',NO,Sleeping,YES,Travelling,NO
'Outside Delhi-NCR',29,5,Average,Laptop/Desktop,3,1,8,2,Linkedin,5,3,'Remain Constant',NO,'Watching web series',YES,Travelling,YES
'Outside Delhi-NCR',28,5,Good,Laptop/Desktop,4,1,10,2,Whatsapp,0,3,'Remain Constant',NO,'Online gaming',YES,School/college,YES
Delhi-NCR,32,3,Average,Laptop/Desktop,2,0,6,2,Whatsapp,10,3,Increased,YES,'Talking to your relatives',YES,'Friends , relatives',YES
'Outside Delhi-NCR',21,0,Poor,Smartphone,1,2,7,2,Instagram,3,4,Decreased,NO,Meditation,YES,Travelling,YES
'Outside Delhi-NCR',24,1,Good,Smartphone,3,2,8,2,Youtube,1,2,'Remain Constant',NO,'Social Media',YES,'Eating outside',YES
Delhi-NCR,25,0,Good,Laptop/Desktop,4,1,8,2,Whatsapp,1,2,'Remain Constant',YES,'Web Series',YES,Travelling,NO
Delhi-NCR,32,4,Average,Laptop/Desktop,4,1,6,0.3,Whatsapp,1,3,'Remain Constant',NO,Cooking,YES,School/college,YES
Delhi-NCR,35,1,Good,Smartphone,3,1,7,2,Whatsapp,1,2,'Remain Constant',NO,Talking,YES,Travelling,YES
Delhi-NCR,27,0,Good,Smartphone,2,0,8,2,Youtube,5,3,'Remain Constant',NO,Sleeping,YES,Travelling,NO
Delhi-NCR,36,3,Average,Laptop/Desktop,2,0,10,2,Youtube,1,3,Increased,NO,'Watching web series',NO,Travelling,NO
Delhi-NCR,22,5,'Very poor',Laptop/Desktop,1,1,8,1,Twitter,3,3,Decreased,YES,Sleeping,YES,'Eating outside',YES
Delhi-NCR,20,6,Good,Laptop/Desktop,4,1,6,1,Instagram,1,3,Increased,NO,'Listening to music',YES,School/college,YES
'Outside Delhi-NCR',16,4,'Very poor',Smartphone,2,0,9,2,Youtube,1,2,'Remain Constant',NO,'Scrolling through social media',YES,School/college,NO
'Outside Delhi-NCR',38,2,Average,Laptop/Desktop,3,1,5,3,Whatsapp,1,3,Increased,NO,'Listening to music',NO,'Roaming around freely',YES
Delhi-NCR,24,2,Good,Smartphone,0,1,9,5,Instagram,2,4,Increased,NO,'Online gaming',YES,Colleagues,YES
'Outside Delhi-NCR',25,0,'Very poor',Smartphone,2,0,7,5,Facebook,1,3,'Remain Constant',NO,'Listening to music',YES,'Roaming around freely',NO
'Outside Delhi-NCR',20,2,'Very poor',Smartphone,8,1,6,1,Youtube,1,3,'Remain Constant',NO,'Watching web series',YES,'Friends , relatives',YES
Delhi-NCR,22,2,'Very poor',Smartphone,1,0,9,3,Youtube,5,2,Decreased,YES,'Listening to music',YES,School/college,NO
Delhi-NCR,23,4,Average,Smartphone,3,1,8,2,Whatsapp,1,4,'Remain Constant',NO,'Scrolling through social media',YES,School/college,NO
'Outside Delhi-NCR',24,2,'Very poor',Smartphone,6,0,12,4,Twitter,1,4,'Remain Constant',NO,'Scrolling through social media',YES,School/college,NO
Delhi-NCR,20,0,Average,Smartphone,0,2,9,2,Youtube,3,3,'Remain Constant',NO,Sports,YES,School/college,NO
'Outside Delhi-NCR',20,5,Average,Laptop/Desktop,4,1,8,1.5,Instagram,0,3,Increased,NO,'Listening to music',YES,'Eating outside',NO
'Outside Delhi-NCR',19,3,'Very poor',Laptop/Desktop,3,0,8,3,Whatsapp,1,3,'Remain Constant',YES,'Scrolling through social media',NO,'Eating outside',NO
'Outside Delhi-NCR',18,4,'Very poor',Laptop/Desktop,1,1,10,3,Whatsapp,0,4,Increased,NO,'Reading books',NO,'Eating outside',NO
'Outside Delhi-NCR',20,5,'Very poor',Laptop/Desktop,3,0.5,10,3,Whatsapp,5,3,Increased,NO,Sleeping,NO,'Friends , relatives',YES
'Outside Delhi-NCR',21,6,Good,Laptop/Desktop,4,1,8,2,Whatsapp,3,3,'Remain Constant',NO,'Web Series',YES,Travelling,YES
'Outside Delhi-NCR',20,2,'Very poor',Laptop/Desktop,1,0,6,1,Twitter,5,3,Decreased,NO,'Listening to music',NO,'Roaming around freely',NO
'Outside Delhi-NCR',20,2,Good,Smartphone,2,1,8,2,Instagram,2,3,Decreased,NO,Sleeping,YES,Colleagues,YES
'Outside Delhi-NCR',21,4,Excellent,Laptop/Desktop,2,0,8,0.5,Whatsapp,9,3,Increased,YES,Meditation,YES,'Friends , relatives',YES
Delhi-NCR,22,2,Average,Laptop/Desktop,2,1,8,3,Whatsapp,3,3,'Remain Constant',NO,'Scrolling through social media',NO,'Friends , relatives',NO
Delhi-NCR,22,2,'Very poor',Smartphone,3,1,10,4,Instagram,5,4,'Remain Constant',NO,'Scrolling through social media',YES,'Eating outside',NO
Delhi-NCR,21,0,Poor,Smartphone,1,0,7,0,Whatsapp,1,2,Increased,NO,'Reading books',YES,'Friends , relatives',YES
Delhi-NCR,19,4,'Very poor',Laptop/Desktop,3,0,10,4,Youtube,8,2,Increased,YES,Sleeping,NO,School/college,NO
Delhi-NCR,18,2,Average,Smartphone,2,1,8,1.3,Instagram,5,4,'Remain Constant',NO,'Drawing and painting and sketching',YES,'Friends , relatives',NO
Delhi-NCR,20,3,'Very poor',Smartphone,2,0,6,3,Instagram,1,2,Increased,NO,'Reading books',NO,'Roaming around freely',YES
Delhi-NCR,20,3,Average,Smartphone,3,1,11,3,Facebook,1,3,'Remain Constant',NO,'With a friend',YES,School/college,NO
'Outside Delhi-NCR',18,0,Good,Smartphone,3,1,7,2,Instagram,0,4,'Remain Constant',NO,Meditation,YES,Colleagues,YES
Delhi-NCR,31,8,'Very poor',Laptop/Desktop,1,0,8,2,Whatsapp,0,2,'Remain Constant',NO,'Online gaming',YES,'Roaming around freely',NO
Delhi-NCR,18,6,'Very poor',Laptop/Desktop,2,0,8,1,Instagram,3,2,Increased,NO,'Watching web series',YES,School/college,NO
'Outside Delhi-NCR',23,2,Good,Smartphone,1,1,5,2,None,0,2,Decreased,NO,Cooking,YES,Nothing,YES
'Outside Delhi-NCR',20,3,Average,Laptop/Desktop,2,0,9,5,Youtube,1,4,Increased,NO,'Scrolling through social media',NO,'Eating outside',NO
Delhi-NCR,33,4,Average,Smartphone,2,1,6,4,Youtube,0,3,Increased,YES,'Talking to your relatives',YES,School/college,YES
Delhi-NCR,24,2,Average,Smartphone,4,0,6,3,Instagram,1,4,Increased,NO,'Watching web series',YES,Travelling,NO
'Outside Delhi-NCR',17,5,'Very poor',Laptop/Desktop,0.5,0.3,7.5,0.5,Youtube,10,3,'Remain Constant',NO,'Online gaming',NO,Travelling,YES
'Outside Delhi-NCR',15,4,Average,Laptop/Desktop,3,0,8,2,Instagram,0,3,'Remain Constant',NO,Painting,YES,'Eating outside',YES
'Outside Delhi-NCR',17,4,Average,Laptop/Desktop,5,2,7,0.4,Youtube,3,3,'Remain Constant',NO,'Reading books, music, exercise',YES,'Friends and roaming around freely',NO
'Outside Delhi-NCR',16,4,Excellent,'Smartphone or Laptop/Desktop',3,1,8,5,Youtube,11,3,Increased,NO,'Listening to music',NO,'Roaming around freely',NO
'Outside Delhi-NCR',15,8,Average,Tablet,4,0,5,2,Youtube,0,3,'Remain Constant',NO,'Watching ted talks and music and books',NO,School/college,YES
'Outside Delhi-NCR',16,8,Good,Smartphone,5,0,9,1,Youtube,1,2,Increased,NO,'Social Media',NO,Colleagues,NO
'Outside Delhi-NCR',16,5,Average,Laptop/Desktop,2,1,10,1,None,5,4,Increased,NO,'Listening to music',YES,Travelling,YES
'Outside Delhi-NCR',15,7,Good,Smartphone,3,2,6,0,Whatsapp,0,3,'Remain Constant',NO,Sleeping,YES,School/college,NO
'Outside Delhi-NCR',16,5,'Very poor',Smartphone,1,2,10,1.5,Instagram,1,3,'Remain Constant',NO,'Online gaming',NO,'Roaming around freely',NO
Delhi-NCR,16,4,'Very poor',Smartphone,4,1,7,2,Instagram,1,3,'Remain Constant',NO,'Watching web series',YES,'Friends , relatives',NO
Delhi-NCR,16,7,Good,Tablet,3,0,8,0.5,Whatsapp,1,2,Decreased,NO,'Listening to music',NO,All,NO
'Outside Delhi-NCR',30,2,'Very poor',Laptop/Desktop,0,1,8,1,Youtube,18,4,Increased,NO,'Watching web series',NO,NOTHING,NO
'Outside Delhi-NCR',16,5,'Very poor',Smartphone,2,0.5,7,1,Youtube,5,3,'Remain Constant',NO,'Calling friends',YES,'Friends , relatives',NO
Delhi-NCR,15,5,Average,Laptop/Desktop,4,1,8,2,Whatsapp,0,3,'Remain Constant',NO,'Listening to music',YES,'Friends , relatives',YES
Delhi-NCR,16,4,Average,Laptop/Desktop,8,1,8,0.5,Youtube,3,4,Decreased,NO,'Listening to music',YES,School/college,YES
Delhi-NCR,15,4,'Very poor',Laptop/Desktop,4,0,5,4,Youtube,1,3,Decreased,NO,'Online gaming',NO,School/college,NO
Delhi-NCR,15,4,Good,Smartphone,4,1,7,2,Youtube,0,4,'Remain Constant',NO,'Online gaming',YES,School/college,YES
Delhi-NCR,15,8,'Very poor',Smartphone,2,0,8,1,Youtube,1,3,Increased,NO,'Online gaming',YES,School/college,NO
Delhi-NCR,16,7,Good,Smartphone,2,0,8,0.5,Youtube,7,3,'Remain Constant',NO,Talking,YES,School/college,NO
Delhi-NCR,15,3,Average,Smartphone,4,0.5,7,1,Instagram,7,4,Increased,NO,'Listening to music',YES,'Eating outside',YES
'Outside Delhi-NCR',16,8,Average,Laptop/Desktop,1,0.3,8,0,Telegram,1,2,Increased,YES,'no stress',NO,'Friends , relatives',NO
Delhi-NCR,16,7,Average,Laptop/Desktop,3,0,8,3,Youtube,5,2,'Remain Constant',NO,'Drawing, painting',NO,School/college,NO
Delhi-NCR,15,4,Average,Laptop/Desktop,4,1,7,1,Whatsapp,7,3,'Remain Constant',NO,'Reading books',YES,'Friends , relatives',YES
Delhi-NCR,16,8,Average,Laptop/Desktop,8,0,7,2,Whatsapp,1,3,'Remain Constant',NO,'Listening to music',NO,School/college,NO
Delhi-NCR,15,5,Excellent,Laptop/Desktop,4,0.5,8,0,None,0,3,'Remain Constant',NO,Sleeping,YES,'Friends , relatives',YES
Delhi-NCR,16,8,Average,Smartphone,4,0,5,8,Whatsapp,2,3,'Remain Constant',NO,'Listening to music',YES,'Friends , relatives',YES
Delhi-NCR,16,8,Good,Laptop/Desktop,4,0,7,2,Whatsapp,1,2,Increased,NO,'Social Media',YES,School/college,NO
Delhi-NCR,16,4,Good,Smartphone,4,1,7,2,Whatsapp,0,2,'Remain Constant',NO,'Listening to music',YES,Colleagues,YES
Delhi-NCR,16,7,Good,Smartphone,3,0,7,2,Instagram,0,2,Increased,NO,'Listening to music',YES,Colleagues,NO
Delhi-NCR,16,6,Average,Laptop/Desktop,1,0.5,9,1,Whatsapp,0,2,Decreased,NO,'All reading books watching web series listening to music and talking to friends',YES,'Friends , relatives',NO
Delhi-NCR,17,6,Average,Smartphone,1,0,8,1,Reddit,1,2,'Remain Constant',NO,'Online gaming',NO,Metro,NO
Delhi-NCR,16,8,'Very poor',Smartphone,5,1,8,1,Facebook,0,3,'Remain Constant',NO,Sleeping,YES,'Friends , relatives',YES
Delhi-NCR,16,4,Average,Laptop/Desktop,1,1,9,2,Youtube,23,4,'Remain Constant',NO,'Online gaming',NO,'Friends , relatives',YES
Delhi-NCR,15,9,Excellent,Laptop/Desktop,10,0.5,6,0,Whatsapp,5,3,'Remain Constant',NO,'Reading books',YES,'Friends , relatives',NO
Delhi-NCR,17,3,'Very poor',Smartphone,6,0,8,2,Youtube,1,3,'Remain Constant',NO,'Online gaming',YES,School/college,YES
Delhi-NCR,16,6,'Very poor',Smartphone,3,1,10,1,Youtube,3,3,'Remain Constant',NO,Sleeping,YES,ALL,YES
Delhi-NCR,16,8,Average,Laptop/Desktop,0,0,6,6,Instagram,1,3,'Remain Constant',NO,'Listening to music',NO,School/college,NO
Delhi-NCR,16,8,Average,Laptop/Desktop,1,0,8,1,Youtube,5,2,'Remain Constant',NO,'Online gaming',YES,School/college,YES
Delhi-NCR,15,5,'Very poor',Smartphone,3,1,9,3,Instagram,1,3,Decreased,NO,'Scrolling through social media',YES,'Eating outside',YES
Delhi-NCR,16,4,Good,Smartphone,3,1,8,1,Whatsapp,0,4,'Remain Constant',NO,Talking,NO,'Eating outside',YES
Delhi-NCR,17,4,'Very poor',Laptop/Desktop,0,1,7,1,Youtube,2,4,Increased,NO,'Online gaming',NO,'Friends , relatives',NO
Delhi-NCR,25,5,Average,Laptop/Desktop,1,3,6,5,Instagram,1,3,Decreased,NO,'Watching web series',YES,Travelling,YES
Delhi-NCR,20,0,'Very poor',Smartphone,6,1,9,3,Youtube,1,3,Increased,NO,'Listening to music',YES,Travelling,YES
Delhi-NCR,16,5,'Very poor',Smartphone,2,1,8,1,Whatsapp,9,2,Increased,NO,'Talking to your relatives',YES,'Friends , relatives',NO
Delhi-NCR,16,4,'Very poor',Smartphone,5,1,7,1,Instagram,0,3,Increased,NO,'Online surfing',NO,'Roaming around freely',YES
Delhi-NCR,15,5,Good,Laptop/Desktop,2,2,6,0.5,Whatsapp,5,3,'Remain Constant',NO,'Social Media',NO,Travelling,NO
Delhi-NCR,16,4,'Very poor',Smartphone,2,2,6,5,Youtube,1,4,Increased,NO,Sleeping,YES,School/college,NO
Delhi-NCR,24,6,Average,Smartphone,6,0,7,2,Youtube,12,3,Decreased,NO,'Do some home related stuff',NO,Travelling,YES
Delhi-NCR,16,5,Excellent,Smartphone,1,1,11,0,Whatsapp,5,3,'Remain Constant',NO,'Listening to music',YES,'Friends , relatives',NO
Delhi-NCR,16,5,Average,Laptop/Desktop,4,0,6,1,Instagram,1,3,'Remain Constant',NO,'Painting ',YES,'Friends , relatives',YES
Delhi-NCR,16,5,Average,Smartphone,2,1,10,1,Whatsapp,3,3,'Remain Constant',NO,'Listening to music',YES,School/college,NO
'Outside Delhi-NCR',15,6,Average,Smartphone,1,1,9,1,Instagram,5,3,Decreased,NO,'Listening to music',YES,'Friends , relatives',YES
'Outside Delhi-NCR',17,2,'Very poor',Tablet,8,3,5,0,Youtube,0,4,Increased,NO,Youtube,YES,School/college,NO
Delhi-NCR,16,5,Average,Laptop/Desktop,8,2,5,2,Youtube,1,4,'Remain Constant',NO,'Taking with parents',YES,School/college,YES
Delhi-NCR,12,5,Good,Tablet,1,0,7,4,Youtube,1,2,Increased,NO,'Online gaming',YES,School/college,YES
Delhi-NCR,14,4,Excellent,Smartphone,2,1,9,1,Whatsapp,5,3,'Remain Constant',NO,'Listening to music',YES,'Friends , relatives',YES
'Outside Delhi-NCR',13,4,Excellent,Smartphone,3,0.25,8,1,Youtube,3,1,Increased,NO,'Online gaming',YES,'Friends , relatives',YES
'Outside Delhi-NCR',12,5,Good,Smartphone,5,0,6,1,Youtube,5,2,'Remain Constant',NO,'Listening to music',YES,Colleagues,YES
Delhi-NCR,15,6,Average,Smartphone,11,0.25,7,5,Youtube,1,4,Increased,NO,'Online gaming , surfing and listening to music ',YES,Travelling,YES
Delhi-NCR,13,5,Excellent,Tablet,4,1,8,0,Youtube,3,4,'Remain Constant',NO,'Listening to music',NO,School/college,YES
'Outside Delhi-NCR',12,4,Good,Tablet,1,1,9,1,Youtube,2,3,Increased,NO,'Listening to music',YES,Colleagues,NO
'Outside Delhi-NCR',13,6,Good,Smartphone,2,2,6,1,Youtube,0,1,Decreased,NO,'Listening to music',YES,Colleagues,YES
Delhi-NCR,16,4,Good,Laptop/Desktop,1,1,7,1,Instagram,2,2,'Remain Constant',NO,'Listening to music',YES,Travelling,YES
Delhi-NCR,12,4,Excellent,Smartphone,2,1,6,0,Youtube,5,2,'Remain Constant',YES,'Listening to music',YES,'Friends , relatives',YES
Delhi-NCR,14,4,Good,Smartphone,3.5,0,9,2,Youtube,2,3,'Remain Constant',NO,'Listening to music',YES,School/college,YES
Delhi-NCR,13,8,Good,Smartphone,3,1,13,1,Whatsapp,5,2,Increased,NO,Meditation,YES,Colleagues,NO
Delhi-NCR,13,6,Average,Laptop/Desktop,2,0,5,1,Youtube,1,3,'Remain Constant',NO,'Online gaming',NO,'Friends , relatives',NO
Delhi-NCR,14,6,Average,Laptop/Desktop,8,1,8,1,Youtube,13,2,'Remain Constant',NO,'Scrolling through social media',NO,'Roaming around freely',NO
Delhi-NCR,14,4,Average,Smartphone,0,1,9,3,Youtube,0,3,'Remain Constant',NO,'Online gaming',YES,School/college,YES
Delhi-NCR,14,6,Good,Smartphone,3,1,7,1,Whatsapp,0,4,'Remain Constant',NO,Sleeping,YES,School/college,YES
Delhi-NCR,14,6,Average,Smartphone,2,1,4,1,Youtube,5,3,'Remain Constant',NO,Dancing,NO,'Friends , relatives',YES
Delhi-NCR,14,4,Excellent,Smartphone,2,2,12,1,Whatsapp,5,3,Decreased,NO,'Watching web series',YES,School/college,YES
'Outside Delhi-NCR',13,5,Good,Tablet,4,1,8,1,Youtube,1,2,Decreased,NO,'Listening to music',NO,Colleagues,YES
Delhi-NCR,18,7,Average,Smartphone,4,0,6,1,Whatsapp,1,2,'Remain Constant',NO,'Listening to music',NO,'Friends , relatives',NO
Delhi-NCR,13,3,Good,Tablet,4,1,7,1,Youtube,2,3,Increased,NO,'Online gaming',YES,School/college,NO
Delhi-NCR,14,6,Average,Smartphone,3,1,10,1,Whatsapp,5,4,'Remain Constant',NO,Sleeping,YES,School/college,YES
Delhi-NCR,13,3,'Very poor',Smartphone,1,2,7,3,Youtube,5,3,'Remain Constant',NO,'Online gaming',YES,Nothing,NO
Delhi-NCR,13,4,Average,Smartphone,2,1,8,2,Youtube,11,3,'Remain Constant',NO,'I play Rubiks cube',YES,ALL,NO
Delhi-NCR,12,5.5,Good,Smartphone,2,1,7,3,Youtube,0,2,'Remain Constant',NO,'Social Media',YES,School/college,YES
Delhi-NCR,11,4,Excellent,Smartphone,2,0,11,1,Whatsapp,5,2,'Remain Constant',NO,Meditation,YES,'Friends , relatives',YES
Delhi-NCR,12,6,Excellent,Tablet,2,0.5,9,1,Whatsapp,0,3,Increased,NO,Youtube,YES,'Friends , relatives',YES
Delhi-NCR,13,2,Good,Smartphone,2,1,6,1,Whatsapp,1,2,Decreased,NO,'Listening to music',YES,'Eating outside',NO
Delhi-NCR,14,6,Good,Laptop/Desktop,3,1,6,1,Youtube,0,3,'Remain Constant',NO,Sleeping,YES,School/college,YES
Delhi-NCR,16,4,Average,Smartphone,2,0,5,1,Youtube,0,3,Increased,NO,'Online gaming',NO,Travelling,YES
Delhi-NCR,10,4,Good,Smartphone,2,1,7,0,None,0,3,'Remain Constant',NO,Talking,YES,School/college,YES
Delhi-NCR,13,5,Excellent,Smartphone,3,1,8,2,Youtube,0,2,Increased,NO,'Reading books',YES,School/college,YES
'Outside Delhi-NCR',12,4,Average,Smartphone,1,1,8,2,Youtube,3,2,'Remain Constant',NO,'Scrolling through social media',YES,'Friends , relatives',YES
Delhi-NCR,15,8,Good,Laptop/Desktop,1.5,0.5,8,0.5,Whatsapp,10,3,'Remain Constant',NO,'Online gaming',YES,Colleagues,NO
Delhi-NCR,14,5,Average,'Smartphone or Laptop/Desktop',2,0,9,0.5,Whatsapp,3,4,Increased,YES,'Listening to music',YES,Travelling,YES
Delhi-NCR,14,3,Average,Smartphone,1,1,10,1,Whatsapp,5,2,Decreased,NO,'Listening to music',YES,'Friends , relatives',YES
Delhi-NCR,13,4,Average,Smartphone,1,0,10,1,None,0,2,'Remain Constant',NO,'Online gaming',YES,'Friends , relatives',NO
Delhi-NCR,15,4,'Very poor',Smartphone,2,1,9,0.5,Instagram,5,4,'Remain Constant',NO,'Online gaming',YES,'Friends , relatives',YES
'Outside Delhi-NCR',17,6,'Very poor',Smartphone,3,1,7,1,Instagram,0,2,Decreased,NO,Gym,YES,'School and friends.',NO
'Outside Delhi-NCR',22,5,Average,Laptop/Desktop,4,0,8,3,Linkedin,1,2,Increased,NO,'Talking to your relatives',YES,School/college,NO
'Outside Delhi-NCR',13,6,Good,Smartphone,2,0,11,1,Whatsapp,3,3,'Remain Constant',NO,'Online gaming',YES,Colleagues,YES
'Outside Delhi-NCR',11,5,Average,Smartphone,2,1,8,1,Whatsapp,3,1,Decreased,NO,'Watching web series',NO,School/college,YES
Delhi-NCR,13,4,Good,Smartphone,1,0.5,7,1,Instagram,5,4,Increased,NO,'Listening to music',YES,School/college,YES
'Outside Delhi-NCR',14,5,Excellent,Smartphone,2,0,12,2,Youtube,0,3,'Remain Constant',NO,'Listening to music',YES,'Friends , relatives',NO
Delhi-NCR,12,6,Good,Laptop/Desktop,2,2,8,7,Snapchat,5,3,'Remain Constant',NO,'Social Media',YES,'Eating outside',YES
Delhi-NCR,13,4,Excellent,Laptop/Desktop,4,1,8,0,Whatsapp,0,2,'Remain Constant',NO,'Listening to music and reading books both . ',YES,ALL,YES
Delhi-NCR,12,4,Good,Smartphone,2,1,8,0,Whatsapp,2,4,'Remain Constant',NO,Meditation,YES,Colleagues,YES
Delhi-NCR,12,5,Excellent,Laptop/Desktop,3,1,7,0,None,5,2,'Remain Constant',NO,'Listening to music',YES,'Eating outside',YES
Delhi-NCR,13,6,Excellent,Smartphone,7,0,5,0,Youtube,1,3,'Remain Constant',NO,'Poetry, writing books and novels , listening to music too',NO,Nothing,YES
'Outside Delhi-NCR',14,6,Excellent,Laptop/Desktop,1,2,7,1,Whatsapp,0,4,Increased,NO,Sleeping,YES,'Roaming around freely',YES
Delhi-NCR,14,6,Good,Smartphone,2,1,8,1,Whatsapp,0,1,Decreased,NO,'Social Media',YES,Colleagues,NO
Delhi-NCR,12,6,Excellent,Smartphone,5,1,8,2,Youtube,0,2,'Remain Constant',NO,'Listening to music',YES,School/college,YES
Delhi-NCR,14,6,Average,Smartphone,2,0.5,10,1,Whatsapp,0,3,'Remain Constant',NO,Sleeping,YES,'School and my school friends',YES
Delhi-NCR,14,3,Excellent,Smartphone,5,2,12,0.25,Whatsapp,1,3,Increased,NO,Sleeping,YES,School/college,YES
Delhi-NCR,12,4,Excellent,Smartphone,3,2,10,1,WhatsApp,0,4,Increased,NO,Sleeping,YES,'Friends , relatives',YES
Delhi-NCR,14,4,Excellent,Smartphone,2,1,6,1,Whatsapp,0,2,'Remain Constant',NO,'Listening to music',YES,School/college,YES
Delhi-NCR,13,6,'Very poor',Laptop/Desktop,3,1,8,2,Whatsapp,5,3,Decreased,NO,'Listening to music',NO,'Friends , relatives',YES
Delhi-NCR,12,5,Excellent,Smartphone,2,1,12,0,Youtube,0,3,'Remain Constant',NO,Dancing,YES,'Friends , relatives',YES
Delhi-NCR,13,5,Excellent,Laptop/Desktop,4,1,8,1,Whatsapp,7,3,Decreased,NO,'Listening to music',YES,School/college,YES
Delhi-NCR,12,4,'Very poor',Smartphone,1.5,0,9,5,Youtube,0,4,Increased,NO,Painting,YES,'Friends , relatives',NO
Delhi-NCR,13,6,Excellent,Laptop/Desktop,2,0.5,9,1,Whatsapp,2,4,'Remain Constant',NO,'Online gaming',YES,'Friends , relatives',YES
Delhi-NCR,12,6,Average,Smartphone,3,1,9,1,Whatsapp,0,4,'Remain Constant',NO,'Listening to music',YES,'Roaming around freely',NO
Delhi-NCR,12,5,Good,Laptop/Desktop,2,0,8,2,Youtube,0,3,'Remain Constant',NO,'Listening to music',NO,Colleagues,YES
Delhi-NCR,13,6,Good,Tablet,2,1,6,1,Youtube,5,3,Decreased,NO,Dancing,YES,Colleagues,YES
Delhi-NCR,16,7.5,Good,Laptop/Desktop,4.5,0,6,0.5,Whatsapp,5,4,'Remain Constant',NO,'Listening to music',YES,Colleagues,YES
'Outside Delhi-NCR',13,5,Excellent,Laptop/Desktop,6,1,6,0,Youtube,1,4,'Remain Constant',NO,'Listening to music',YES,School/college,YES
Delhi-NCR,13,4,Good,Smartphone,4,1,8,1,Whatsapp,5,3,Decreased,NO,Reading,YES,School/college,YES
Delhi-NCR,15,5,Average,Smartphone,2,1,13,1,Youtube,0,2,'Remain Constant',NO,'Online surfing',YES,School/college,NO
Delhi-NCR,12,6,Excellent,Laptop/Desktop,3,1,9,4,Youtube,2,4,'Remain Constant',NO,'Talking to your relatives',YES,School/college,YES
Delhi-NCR,13,8,Average,Laptop/Desktop,2,1,7,1,Whatsapp,0,3,Decreased,NO,Cooking,YES,Travelling,YES
Delhi-NCR,15,5,Good,Tablet,4,1,7,2,Whatsapp,1,4,Increased,NO,'Social Media',YES,Travelling,NO
Delhi-NCR,13,3,'Very poor',Smartphone,1,0.5,8,3,Youtube,0,3,'Remain Constant',NO,'Watching YouTube ',NO,School/college,NO
Delhi-NCR,12,3,Good,Smartphone,4,1,8,1,Instagram,5,3,Decreased,NO,Dancing,YES,Travelling,YES
Delhi-NCR,14,6,Average,Smartphone,4,1,9,1,Whatsapp,0,4,'Remain Constant',NO,'Listening to music',YES,'Friends , relatives',YES
Delhi-NCR,13,4,Average,Smartphone,0,0.5,8,3,Youtube,5,4,Decreased,NO,'Online gaming',YES,School/college,NO
Delhi-NCR,14,5,Excellent,Laptop/Desktop,3.5,1,8,0.5,Youtube,0,4,'Remain Constant',NO,'Reading books',YES,School/college,YES
Delhi-NCR,13,5,Good,Tablet,2,0.5,7,1,Whatsapp,0,3,'Remain Constant',NO,Talking,YES,School/college,YES
